15
Lattice="6.33 0.0 0.0 0.0 6.33 0.0 0.0 0.0 6.33" Properties=species:S:1:pos:R:3:REF_forces:R:3 REF_energy=-32475.402209294243 config_type=Default campaign_id=vacancy_migration_single_shot iteration=0 path_id=w_vacancy image_index=0 selection_reason=reference calculator_name=quantum_espresso dft_settings_hash=4f11d8d45332cd8466d656d05f5d87b95323b5824f04d8377c1d044ba6b7b124 structure_hash=57c63e6307a4224fcb65a4940cec39529f13ac37837acde0cad37155485198e5 pbc="T T T"
W        1.56857934       1.56857934       1.56857934      -0.02254575      -0.02254575      -0.02254575
W       -0.00000000       0.00000000       3.16500000       0.00000000       0.00000000       0.00000000
W        1.56857934       1.56857934       4.76142066      -0.02254575      -0.02254575       0.02254575
W        0.00000000       3.16500000       0.00000000       0.00000000       0.00000000       0.00000000
W        1.56857934       4.76142066       1.56857934      -0.02254575       0.02254575      -0.02254575
W       -0.00000000       3.16500000       3.16500000       0.00000000       0.00000000       0.00000000
W        1.56857934       4.76142066       4.76142066      -0.02254575       0.02254575       0.02254575
W        3.16500000       0.00000000       0.00000000       0.00000000       0.00000000       0.00000000
W        4.76142066       1.56857934       1.56857934       0.02254575      -0.02254575      -0.02254575
W        3.16500000       0.00000000       3.16500000       0.00000000       0.00000000       0.00000000
W        4.76142066       1.56857934       4.76142066       0.02254575      -0.02254575       0.02254575
W        3.16500000       3.16500000       0.00000000       0.00000000       0.00000000       0.00000000
W        4.76142066       4.76142066       1.56857934       0.02254575       0.02254575      -0.02254575
W        3.16500000       3.16500000       3.16500000       0.00000000       0.00000000       0.00000000
W        4.76142066       4.76142066       4.76142066       0.02254575       0.02254575       0.02254575
15
Lattice="6.33 0.0 0.0 0.0 6.33 0.0 0.0 0.0 6.33" Properties=species:S:1:pos:R:3:REF_forces:R:3 REF_energy=-32473.73258354335 config_type=Default campaign_id=vacancy_migration_single_shot iteration=0 path_id=w_vacancy image_index=2 selection_reason=peak_plus_neighbors calculator_name=quantum_espresso dft_settings_hash=4f11d8d45332cd8466d656d05f5d87b95323b5824f04d8377c1d044ba6b7b124 structure_hash=04e9123b818781898ffb2a5a6dc4aea179fb55e503aed156641e41b5ba207153 pbc="T T T"
W        1.11862380       1.11862380       1.11862380       1.04473460       1.04473460       1.04473460
W       -0.03632860      -0.03632860       3.17528241      -0.77942298      -0.77942298       0.35843903
W        1.55962753       1.55962753       4.69703715       0.44840502       0.44840502      -0.14676911
W       -0.03632860       3.17528241      -0.03632860      -0.77942298       0.35843903      -0.77942298
W        1.55962753       4.69703715       1.55962753       0.44840502      -0.14676911       0.44840502
W        0.02197044       3.09252812       3.09252812      -0.83730700       0.57603792       0.57603792
W        1.54221850       4.80034916       4.80034916       0.10108961      -0.61436047      -0.61436047
W        3.17528241      -0.03632860      -0.03632860       0.35843903      -0.77942298      -0.77942298
W        4.69703715       1.55962753       1.55962753      -0.14676911       0.44840502       0.44840502
W        3.09252812       0.02197044       3.09252812       0.57603792      -0.83730700       0.57603792
W        4.80034916       1.54221850       4.80034916      -0.61436047       0.10108961      -0.61436047
W        3.09252812       3.09252812       0.02197044       0.57603792       0.57603792      -0.83730700
W        4.80034916       4.80034916       1.54221850      -0.61436047      -0.61436047       0.10108961
W        3.14249696       3.14249696       3.14249696      -0.26981774      -0.26981774      -0.26981774
W        4.69506712       4.69506712       4.69506712       0.48831137       0.48831137       0.48831137
15
Lattice="6.33 0.0 0.0 0.0 6.33 0.0 0.0 0.0 6.33" Properties=species:S:1:pos:R:3:REF_forces:R:3 REF_energy=-32473.168179849414 config_type=Default campaign_id=vacancy_migration_single_shot iteration=0 path_id=w_vacancy image_index=3 selection_reason=peak_plus_neighbors calculator_name=quantum_espresso dft_settings_hash=4f11d8d45332cd8466d656d05f5d87b95323b5824f04d8377c1d044ba6b7b124 structure_hash=903fd81a314c81bb030955fd39a53224f0413aba2909e565650e35c5b7ae8cb0 pbc="T T T"
W        0.79125000       0.79125000       0.79125000       0.00000000       0.00000000       0.00000000
W       -0.01652758      -0.01652758       3.18575434      -0.19870796      -0.19870796       0.81789363
W        1.59902758       1.59902758       4.72674566       0.19870796       0.19870796      -0.81789363
W       -0.01652758       3.18575434      -0.01652758      -0.19870796       0.81789363      -0.19870796
W        1.59902758       4.72674566       1.59902758       0.19870796      -0.81789363       0.19870796
W        0.04740241       3.06499064       3.06499064      -0.02768127       1.16818586       1.16818586
W        1.53509759       4.84750936       4.84750936       0.02768127      -1.16818586      -1.16818586
W        3.18575434      -0.01652758      -0.01652758       0.81789363      -0.19870796      -0.19870796
W        4.72674566       1.59902758       1.59902758      -0.81789363       0.19870796       0.19870796
W        3.06499064       0.04740241       3.06499064       1.16818586      -0.02768127       1.16818586
W        4.84750936       1.53509759       4.84750936      -1.16818586       0.02768127      -1.16818586
W        3.06499064       3.06499064       0.04740241       1.16818586       1.16818586      -0.02768127
W        4.84750936       4.84750936       1.53509759      -1.16818586      -1.16818586       0.02768127
W        3.20533440       3.20533440       3.20533440      -0.39868991      -0.39868991      -0.39868991
W        4.70716560       4.70716560       4.70716560       0.39868991       0.39868991       0.39868991
15
Lattice="6.33 0.0 0.0 0.0 6.33 0.0 0.0 0.0 6.33" Properties=species:S:1:pos:R:3:REF_forces:R:3 REF_energy=-32473.73258354335 config_type=Default campaign_id=vacancy_migration_single_shot iteration=0 path_id=w_vacancy image_index=4 selection_reason=peak_plus_neighbors calculator_name=quantum_espresso dft_settings_hash=4f11d8d45332cd8466d656d05f5d87b95323b5824f04d8377c1d044ba6b7b124 structure_hash=8632d2fba5358f6c8d6c15ff5e6f40e94e034b26e417fdb4ecdd2c85c511bc7e pbc="T T T"
W        0.46387620       0.46387620       0.46387620      -1.04474309      -1.04474309      -1.04474309
W        0.02287247       0.02287247       3.21546285      -0.44841865      -0.44841865       0.14676602
W        1.61882860       1.61882860       4.73721759       0.77936282       0.77936282      -0.35834185
W        0.02287247       3.21546285       0.02287247      -0.44841865       0.14676602      -0.44841865
W        1.61882860       4.73721759       1.61882860       0.77936282      -0.35834185       0.77936282
W        0.04028150       3.11215084       3.11215084      -0.10107392       0.61434196       0.61434196
W        1.56052956       4.81997188       4.81997188       0.83726252      -0.57599781      -0.57599781
W        3.21546285       0.02287247       0.02287247       0.14676602      -0.44841865      -0.44841865
W        4.73721759       1.61882860       1.61882860      -0.35834185       0.77936282       0.77936282
W        3.11215084       0.04028150       3.11215084       0.61434196      -0.10107392       0.61434196
W        4.81997188       1.56052956       4.81997188      -0.57599781       0.83726252      -0.57599781
W        3.11215084       3.11215084       0.04028150       0.61434196       0.61434196      -0.10107392
W        4.81997188       4.81997188       1.56052956      -0.57599781      -0.57599781       0.83726252
W        3.21743288       3.21743288       3.21743288      -0.48828566      -0.48828566      -0.48828566
W        4.77000304       4.77000304       4.77000304       0.26983959       0.26983959       0.26983959
