15
Lattice="5.732 0.0 0.0 0.0 5.732 0.0 0.0 0.0 5.732" Properties=species:S:1:pos:R:3:initial_magmoms:R:1:REF_forces:R:3 REF_energy=-67194.26364495653 config_type=Default campaign_id=vacancy_migration_single_shot iteration=0 path_id=fe_vacancy image_index=0 selection_reason=reference calculator_name=quantum_espresso dft_settings_hash=7cd7be4368a1602dec7ae4ec5aef6f391a9ec12171066ee24a753b53ae43a078 structure_hash=a5ecdda5e337506a77ed0c900086140207bd2f1c8b3660e43b522ee39febfe8d pbc="T T T"
Fe       1.39642446       1.39642446       1.39642446       2.30000000      -0.03020018      -0.03020018      -0.03020018
Fe       0.00000000       0.00000000       2.86600000       2.30000000       0.00000000       0.00000000       0.00000000
Fe       1.39642446       1.39642446       4.33557554       2.30000000      -0.03020018      -0.03020018       0.03020018
Fe       0.00000000       2.86600000       0.00000000       2.30000000       0.00000000       0.00000000       0.00000000
Fe       1.39642446       4.33557554       1.39642446       2.30000000      -0.03020018       0.03020018      -0.03020018
Fe       0.00000000       2.86600000       2.86600000       2.30000000       0.00000000       0.00000000       0.00000000
Fe       1.39642446       4.33557554       4.33557554       2.30000000      -0.03020018       0.03020018       0.03020018
Fe       2.86600000       0.00000000       0.00000000       2.30000000       0.00000000       0.00000000       0.00000000
Fe       4.33557554       1.39642446       1.39642446       2.30000000       0.03020018      -0.03020018      -0.03020018
Fe       2.86600000       0.00000000       2.86600000       2.30000000       0.00000000       0.00000000       0.00000000
Fe       4.33557554       1.39642446       4.33557554       2.30000000       0.03020018      -0.03020018       0.03020018
Fe       2.86600000       2.86600000       0.00000000       2.30000000       0.00000000       0.00000000       0.00000000
Fe       4.33557554       4.33557554       1.39642446       2.30000000       0.03020018       0.03020018      -0.03020018
Fe       2.86600000       2.86600000       2.86600000       2.30000000       0.00000000       0.00000000       0.00000000
Fe       4.33557554       4.33557554       4.33557554       2.30000000       0.03020018       0.03020018       0.03020018
15
Lattice="5.732 0.0 0.0 0.0 5.732 0.0 0.0 0.0 5.732" Properties=species:S:1:pos:R:3:initial_magmoms:R:1:REF_forces:R:3 REF_energy=-67193.72205909643 config_type=Default campaign_id=vacancy_migration_single_shot iteration=0 path_id=fe_vacancy image_index=2 selection_reason=peak_plus_neighbors calculator_name=quantum_espresso dft_settings_hash=7cd7be4368a1602dec7ae4ec5aef6f391a9ec12171066ee24a753b53ae43a078 structure_hash=988ccd4ac5fa0fb6454c95f0c950b7eb2b38345dfa12e96a9430907cf07c1474 pbc="T T T"
Fe       1.00560258       1.00560258       1.00560258       2.30000000       0.27776193       0.27776193       0.27776193
Fe      -0.02686185      -0.02686185       2.89140159       2.30000000      -0.15984574      -0.15984574       0.00522294
Fe       1.39218703       1.39218703       4.29643348       2.30000000       0.06398576       0.06398576      -0.27297454
Fe      -0.02686185       2.89140159      -0.02686185       2.30000000      -0.15984574       0.00522294      -0.15984574
Fe       1.39218703       4.29643348       1.39218703       2.30000000       0.06398576      -0.27297454       0.06398576
Fe       0.03203521       2.79825623       2.79825623       2.30000000      -0.22838055       0.27966892       0.27966892
Fe       1.39539862       4.33677005       4.33677005       2.30000000      -0.16388212      -0.02319032      -0.02319032
Fe       2.89140159      -0.02686185      -0.02686185       2.30000000       0.00522294      -0.15984574      -0.15984574
Fe       4.29643348       1.39218703       1.39218703       2.30000000      -0.27297454       0.06398576       0.06398576
Fe       2.79825623       0.03203521       2.79825623       2.30000000       0.27966892      -0.22838055       0.27966892
Fe       4.33677005       1.39539862       4.33677005       2.30000000      -0.02319032      -0.16388212      -0.02319032
Fe       2.79825623       2.79825623       0.03203521       2.30000000       0.27966892       0.27966892      -0.22838055
Fe       4.33677005       4.33677005       1.39539862       2.30000000      -0.02319032      -0.02319032      -0.16388212
Fe       2.81380850       2.81380850       2.81380850       2.30000000      -0.02938000      -0.02938000      -0.02938000
Fe       4.27235663       4.27235663       4.27235663       2.30000000       0.09039587       0.09039587       0.09039587
15
Lattice="5.732 0.0 0.0 0.0 5.732 0.0 0.0 0.0 5.732" Properties=species:S:1:pos:R:3:initial_magmoms:R:1:REF_forces:R:3 REF_energy=-67193.65780240668 config_type=Default campaign_id=vacancy_migration_single_shot iteration=0 path_id=fe_vacancy image_index=3 selection_reason=peak_plus_neighbors calculator_name=quantum_espresso dft_settings_hash=7cd7be4368a1602dec7ae4ec5aef6f391a9ec12171066ee24a753b53ae43a078 structure_hash=d7e8b01d782fca102f37acd616d6a7064702a51876b32ebd91d202ab40e58897 pbc="T T T"
Fe       0.71650000       0.71650000       0.71650000       2.30000000       0.00000000       0.00000000       0.00000000
Fe       0.00349229       0.00349229       2.88825699       2.30000000      -0.05931998      -0.05931998       0.20159686
Fe       1.42950771       1.42950771       4.27674301       2.30000000       0.05931998       0.05931998      -0.20159686
Fe       0.00349229       2.88825699       0.00349229       2.30000000      -0.05931998       0.20159686      -0.05931998
Fe       1.42950771       4.27674301       1.42950771       2.30000000       0.05931998      -0.20159686       0.05931998
Fe       0.04161119       2.79732294       2.79732294       2.30000000       0.05163932       0.13421493       0.13421493
Fe       1.39138881       4.36767706       4.36767706       2.30000000      -0.05163932      -0.13421493      -0.13421493
Fe       2.88825699       0.00349229       0.00349229       2.30000000       0.20159686      -0.05931998      -0.05931998
Fe       4.27674301       1.42950771       1.42950771       2.30000000      -0.20159686       0.05931998       0.05931998
Fe       2.79732294       0.04161119       2.79732294       2.30000000       0.13421493       0.05163932       0.13421493
Fe       4.36767706       1.39138881       4.36767706       2.30000000      -0.13421493      -0.05163932      -0.13421493
Fe       2.79732294       2.79732294       0.04161119       2.30000000       0.13421493       0.13421493       0.05163932
Fe       4.36767706       4.36767706       1.39138881       2.30000000      -0.13421493      -0.13421493      -0.05163932
Fe       2.86571731       2.86571731       2.86571731       2.30000000      -0.15851622      -0.15851622      -0.15851622
Fe       4.29928269       4.29928269       4.29928269       2.30000000       0.15851622       0.15851622       0.15851622
15
Lattice="5.732 0.0 0.0 0.0 5.732 0.0 0.0 0.0 5.732" Properties=species:S:1:pos:R:3:initial_magmoms:R:1:REF_forces:R:3 REF_energy=-67193.72205909643 config_type=Default campaign_id=vacancy_migration_single_shot iteration=0 path_id=fe_vacancy image_index=4 selection_reason=peak_plus_neighbors calculator_name=quantum_espresso dft_settings_hash=7cd7be4368a1602dec7ae4ec5aef6f391a9ec12171066ee24a753b53ae43a078 structure_hash=505dbae2b190040272f6833a5fea9abc244b971c3911134dda9da91d1f73c834 pbc="T T T"
Fe       0.42739742       0.42739742       0.42739742       2.30000000      -0.27752873      -0.27752873      -0.27752873
Fe       0.04081297       0.04081297       2.86856652       2.30000000      -0.06381709      -0.06381709       0.27281281
Fe       1.45986185       1.45986185       4.27359841       2.30000000       0.15982003       0.15982003      -0.00523502
Fe       0.04081297       2.86856652       0.04081297       2.30000000      -0.06381709       0.27281281      -0.06381709
Fe       1.45986185       4.27359841       1.45986185       2.30000000       0.15982003      -0.00523502       0.15982003
Fe       0.03760138       2.82822995       2.82822995       2.30000000       0.16405027       0.02311576       0.02311576
Fe       1.40096479       4.36674377       4.36674377       2.30000000       0.22835356      -0.27972368      -0.27972368
Fe       2.86856652       0.04081297       0.04081297       2.30000000       0.27281281      -0.06381709      -0.06381709
Fe       4.27359841       1.45986185       1.45986185       2.30000000      -0.00523502       0.15982003       0.15982003
Fe       2.82822995       0.03760138       2.82822995       2.30000000       0.02311576       0.16405027       0.02311576
Fe       4.36674377       1.40096479       4.36674377       2.30000000      -0.27972368       0.22835356      -0.27972368
Fe       2.82822995       2.82822995       0.03760138       2.30000000       0.02311576       0.02311576       0.16405027
Fe       4.36674377       4.36674377       1.40096479       2.30000000      -0.27972368      -0.27972368       0.22835356
Fe       2.89264337       2.89264337       2.89264337       2.30000000      -0.09059488      -0.09059488      -0.09059488
Fe       4.35119150       4.35119150       4.35119150       2.30000000       0.02935197       0.02935197       0.02935197
