31
Lattice="8.17 0.0 0.0 0.0 8.17 0.0 0.0 0.0 8.17" Properties=species:S:1:pos:R:3:REF_forces:R:3 REF_energy=-121187.02066154615 config_type=Default campaign_id=vacancy_migration_single_shot iteration=0 path_id=ag_vacancy image_index=0 selection_reason=reference calculator_name=quantum_espresso dft_settings_hash=f022cb7a6bf29da29b43a6c850855c7b78d167da026c8f91d5aa0833734e4a2e structure_hash=fb86ec89ffd767dc658738f17cf4e83544bea9d9d9f7435e3a854871505d5ee2 pbc="T T T"
Ag      -0.00000000       2.00695574       2.00695574      -0.00000000       0.06408680       0.06408680
Ag       2.00695574      -0.00000000       2.00695574       0.06408680      -0.00000000       0.06408680
Ag       2.00695574       2.00695574      -0.00000000       0.06408680       0.06408680       0.00000000
Ag      -0.00000000      -0.00000000       4.08500000       0.00000000       0.00000000       0.00000000
Ag      -0.00000000       2.00695574       6.16304426       0.00000000       0.06408680      -0.06408680
Ag       2.00695574      -0.00000000       6.16304426       0.06408680       0.00000000      -0.06408680
Ag       2.03691292       2.03691292       4.08500000      -0.01854331      -0.01854331       0.00000000
Ag      -0.00000000       4.08500000      -0.00000000       0.00000000       0.00000000       0.00000000
Ag      -0.00000000       6.16304426       2.00695574       0.00000000      -0.06408680       0.06408680
Ag       2.03691292       4.08500000       2.03691292      -0.01854331       0.00000000      -0.01854331
Ag       2.00695574       6.16304426      -0.00000000       0.06408680      -0.06408680       0.00000000
Ag      -0.00000000       4.08500000       4.08500000       0.00000000       0.00000000       0.00000000
Ag      -0.00000000       6.16304426       6.16304426       0.00000000      -0.06408680      -0.06408680
Ag       2.03691292       4.08500000       6.13308708      -0.01854331       0.00000000       0.01854331
Ag       2.03691292       6.13308708       4.08500000      -0.01854331       0.01854331       0.00000000
Ag       4.08500000      -0.00000000      -0.00000000       0.00000000       0.00000000       0.00000000
Ag       4.08500000       2.03691292       2.03691292       0.00000000      -0.01854331      -0.01854331
Ag       6.16304426      -0.00000000       2.00695574      -0.06408680      -0.00000000       0.06408680
Ag       6.16304426       2.00695574      -0.00000000      -0.06408680       0.06408680       0.00000000
Ag       4.08500000      -0.00000000       4.08500000       0.00000000       0.00000000       0.00000000
Ag       4.08500000       2.03691292       6.13308708       0.00000000      -0.01854331       0.01854331
Ag       6.16304426      -0.00000000       6.16304426      -0.06408680       0.00000000      -0.06408680
Ag       6.13308708       2.03691292       4.08500000       0.01854331      -0.01854331       0.00000000
Ag       4.08500000       4.08500000      -0.00000000       0.00000000       0.00000000       0.00000000
Ag       4.08500000       6.13308708       2.03691292       0.00000000       0.01854331      -0.01854331
Ag       6.13308708       4.08500000       2.03691292       0.01854331       0.00000000      -0.01854331
Ag       6.16304426       6.16304426      -0.00000000      -0.06408680      -0.06408680       0.00000000
Ag       4.08500000       4.08500000       4.08500000       0.00000000       0.00000000       0.00000000
Ag       4.08500000       6.13308708       6.13308708       0.00000000       0.01854331       0.01854331
Ag       6.13308708       4.08500000       6.13308708       0.01854331       0.00000000       0.01854331
Ag       6.13308708       6.13308708       4.08500000       0.01854331       0.01854331       0.00000000
31
Lattice="8.17 0.0 0.0 0.0 8.17 0.0 0.0 0.0 8.17" Properties=species:S:1:pos:R:3:REF_forces:R:3 REF_energy=-121186.48865300472 config_type=Default campaign_id=vacancy_migration_single_shot iteration=0 path_id=ag_vacancy image_index=2 selection_reason=peak_plus_neighbors calculator_name=quantum_espresso dft_settings_hash=f022cb7a6bf29da29b43a6c850855c7b78d167da026c8f91d5aa0833734e4a2e structure_hash=24a3014eefe356283bdb522fb85b530426109463c3590fc0113b7abd1d6cf358 pbc="T T T"
Ag      -0.00060795       1.41312470       1.41312470      -0.00009025       0.49117558       0.49117558
Ag       2.16104781      -0.06442782       2.06228418      -0.00139045       0.02504075      -0.06500289
Ag       2.16104781       2.06228418      -0.06442782      -0.00139045      -0.06500289       0.02504075
Ag      -0.00057189       0.02764201       4.02625799      -0.00046588      -0.05049801       0.05372243
Ag      -0.00068036       1.99777796       6.19516232       0.00016609      -0.01776067      -0.03516292
Ag       1.98777247      -0.00077450       6.14995339       0.05763436      -0.00061141      -0.08079023
Ag       1.97878307       2.02691659       4.03797080       0.03358246      -0.02130339       0.02816104
Ag      -0.00057189       4.02625799       0.02764201      -0.00046588       0.05372243      -0.05049801
Ag      -0.00068036       6.19516232       1.99777796       0.00016609      -0.03516292      -0.01776067
Ag       1.97878307       4.03797080       2.02691659       0.03358246       0.02816104      -0.02130339
Ag       1.98777247       6.14995339      -0.00077450       0.05763436      -0.08079023      -0.00061141
Ag      -0.00064801       4.04967531       4.04967531      -0.00008433       0.01287377       0.01287377
Ag      -0.00073528       6.16077303       6.16077303       0.00017586      -0.04967166      -0.04967166
Ag       2.01621591       4.09382012       6.10741104       0.01023762      -0.02192020      -0.00996765
Ag       2.01621591       6.10741104       4.09382012       0.01023762      -0.00996765      -0.02192020
Ag       4.08409635      -0.03194822      -0.03194822       0.00103718      -0.01445731      -0.01445731
Ag       4.08443363       2.05766260       2.05766260      -0.00023166      -0.04423249      -0.04423249
Ag       6.00765043      -0.06440907       2.06211373       0.00118425       0.02487645      -0.06462211
Ag       6.00765043       2.06211373      -0.06440907       0.00118425      -0.06462211       0.02487645
Ag       4.08437762      -0.00855334       4.13658242      -0.00007636      -0.04894918      -0.03770986
Ag       4.08426642       2.04533465       6.05291566       0.00035713       0.02209760       0.02521867
Ag       6.18079896      -0.00077978       6.14995934      -0.05752715      -0.00056641      -0.08068430
Ag       6.18998705       2.02685532       4.03806658      -0.03376373      -0.02117381       0.02760234
Ag       4.08437762       4.13658242      -0.00855334      -0.00007636      -0.03770986      -0.04894918
Ag       4.08426642       6.05291566       2.04533465       0.00035713       0.02521867       0.02209760
Ag       6.18998705       4.03806658       2.02685532      -0.03376373       0.02760234      -0.02117381
Ag       6.18079896       6.14995934      -0.00077978      -0.05752715      -0.08068430      -0.00056641
Ag       4.08442599       4.07131671       4.07131671      -0.00013267      -0.01172783      -0.01172783
Ag       4.08437589       6.13003103       6.13003103      -0.00015452      -0.00222092      -0.00222092
Ag       6.15247701       4.09373726       6.10746075      -0.01019828      -0.02170422      -0.01003064
Ag       6.15247701       6.10746075       4.09373726      -0.01019828      -0.01003064      -0.02170422
31
Lattice="8.17 0.0 0.0 0.0 8.17 0.0 0.0 0.0 8.17" Properties=species:S:1:pos:R:3:REF_forces:R:3 REF_energy=-121186.26221537868 config_type=Default campaign_id=vacancy_migration_single_shot iteration=0 path_id=ag_vacancy image_index=3 selection_reason=peak_plus_neighbors calculator_name=quantum_espresso dft_settings_hash=f022cb7a6bf29da29b43a6c850855c7b78d167da026c8f91d5aa0833734e4a2e structure_hash=4b57b2ad174694f58e740feddedc46f0934a5712ce6fffee327ed7c75ade52ba pbc="T T T"
Ag      -0.00061989       1.02120195       1.02120195      -0.00041986      -0.00007790      -0.00007790
Ag       2.19103397      -0.05361373       2.09622285       0.03355495       0.04174417      -0.04193366
Ag       2.19103397       2.09622285      -0.05361373       0.03355495      -0.04193366       0.04174417
Ag      -0.00065265       0.04468849       4.00695594      -0.00024503       0.00866385       0.03087561
Ag      -0.00071840       1.99781476       6.20555030       0.00012444      -0.00863428      -0.03088255
Ag       1.98017917       0.00687428       6.16125584       0.04813516       0.01025176      -0.05935057
Ag       1.98023863       2.03565784       4.05128621       0.04809634      -0.01014943       0.05925262
Ag      -0.00065265       4.00695594       0.04468849      -0.00024503       0.03087561       0.00866385
Ag      -0.00071840       6.20555030       1.99781476       0.00012444      -0.03088255      -0.00863428
Ag       1.98023863       4.05128621       2.03565784       0.04809634       0.05925262      -0.01014943
Ag       1.98017917       6.16125584       0.00687428       0.04813516      -0.05935057       0.01025176
Ag      -0.00066798       4.04962147       4.04962147      -0.00015787       0.03252137       0.03252137
Ag      -0.00070164       6.16288449       6.16288449      -0.00012444      -0.03251571      -0.03251571
Ag       2.01258440       4.10206489       6.11045640       0.00598373       0.00000257      -0.00004217
Ag       2.01258440       6.11045640       4.10206489       0.00598373      -0.00004217       0.00000257
Ag       4.08415797      -0.02838433      -0.02838433       0.00057387       0.01519753       0.01519753
Ag       4.08433265       2.07089402       2.07089402      -0.00005476      -0.01517928      -0.01517928
Ag       5.97758662      -0.05364833       2.09606832      -0.03351099       0.04192518      -0.04173003
Ag       5.97758662       2.09606832      -0.05364833      -0.03351099      -0.04173003       0.04192518
Ag       4.08435872      -0.00841687       4.16099832      -0.00013215      -0.03898589      -0.02866446
Ag       4.08425658       2.05092144       6.05151086       0.00025917       0.03899644       0.02867063
Ag       6.18837742       0.00685553       6.16123551      -0.04811305       0.01018388      -0.05922202
Ag       6.18843411       2.03562971       4.05124538      -0.04815342      -0.01028364       0.05932718
Ag       4.08435872       4.16099832      -0.00841687      -0.00013215      -0.02866446      -0.03898589
Ag       4.08425658       6.05151086       2.05092144       0.00025917       0.02867063       0.03899644
Ag       6.18843411       4.05124538       2.03562971      -0.04815342       0.05932718      -0.01028364
Ag       6.18837742       6.16123551       0.00685553      -0.04811305      -0.05922202       0.01018388
Ag       4.08440513       4.07690791       4.07690791      -0.00033167      -0.00566054      -0.00566054
Ag       4.08429247       6.13560389       6.13560389       0.00005759       0.00564717       0.00564717
Ag       6.15601681       4.10201295       6.11048022      -0.00577007       0.00017586      -0.00012316
Ag       6.15601681       6.11048022       4.10201295      -0.00577007      -0.00012316       0.00017586
31
Lattice="8.17 0.0 0.0 0.0 8.17 0.0 0.0 0.0 8.17" Properties=species:S:1:pos:R:3:REF_forces:R:3 REF_energy=-121186.48834606032 config_type=Default campaign_id=vacancy_migration_single_shot iteration=0 path_id=ag_vacancy image_index=4 selection_reason=peak_plus_neighbors calculator_name=quantum_espresso dft_settings_hash=f022cb7a6bf29da29b43a6c850855c7b78d167da026c8f91d5aa0833734e4a2e structure_hash=70424122dff480be00397729722288062a598f7965d0229da1671c187ed51da7 pbc="T T T"
Ag      -0.00058308       0.62968649       0.62968649      -0.00023191      -0.49094109      -0.49094109
Ag       2.16110228      -0.01969451       2.10698767      -0.00140639       0.06467327      -0.02498212
Ag       2.16110228       2.10698767      -0.01969451      -0.00140639      -0.02498212       0.06467327
Ag      -0.00066973       0.04473208       4.01732089       0.00001954       0.01771979       0.03511613
Ag      -0.00065943       2.01483171       6.18627584      -0.00004757       0.05050469      -0.05376022
Ag       1.97868354       0.01562038       6.17441795       0.03365651       0.02111030      -0.02770055
Ag       1.98788464       2.04331095       4.06252005       0.05726927       0.00048440       0.08086865
Ag      -0.00066973       4.01732089       0.04473208       0.00001954       0.03511613       0.01771979
Ag      -0.00065943       6.18627584       2.01483171      -0.00004757      -0.05376022       0.05050469
Ag       1.98788464       4.06252005       2.04331095       0.05726927       0.08086865       0.00048440
Ag       1.97868354       6.17441795       0.01562038       0.03365651      -0.02770055       0.02111030
Ag      -0.00067739       4.05171007       4.05171007       0.00004911       0.04969377       0.04969377
Ag      -0.00076025       6.16277648       6.16277648       0.00030313      -0.01272465      -0.01272465
Ag       2.01623424       4.10505884       6.11867026       0.00998514       0.01015894       0.02199270
Ag       2.01623424       6.11867026       4.10505884       0.00998514       0.02199270       0.01015894
Ag       4.08416168      -0.01516210      -0.01516210       0.00048517       0.04417027       0.04417027
Ag       4.08437492       2.07444521       2.07444521      -0.00006891       0.01451593       0.01451593
Ag       6.00757704      -0.01972287       2.10683023       0.00134109       0.06470695      -0.02478081
Ag       6.00757704       2.10683023      -0.01972287       0.00134109      -0.02478081       0.06470695
Ag       4.08439453      -0.00279480       4.15962712      -0.00020235      -0.02216034      -0.02524103
Ag       4.08426492       2.05116292       6.07591108       0.00031676       0.04845990       0.03769597
Ag       6.18985258       0.01563786       6.17446201      -0.03346265       0.02109230      -0.02773963
Ag       6.18088183       2.04324637       4.06250707      -0.05760171       0.00060549       0.08086197
Ag       4.08439453       4.15962712      -0.00279480      -0.00020235      -0.02524103      -0.02216034
Ag       4.08426492       6.07591108       2.05116292       0.00031676       0.03769597       0.04845990
Ag       6.18088183       4.06250707       2.04324637      -0.05760171       0.08086197       0.00060549
Ag       6.18985258       6.17446201       0.01563786      -0.03346265      -0.02773963       0.02109230
Ag       4.08447636       4.08248160       4.08248160      -0.00039569       0.00217027       0.00217027
Ag       4.08427232       6.14125008       6.14125008       0.00021186       0.01141775       0.01141775
Ag       6.15243312       4.10502614       6.11872370      -0.01004401       0.01015406       0.02185772
Ag       6.15243312       6.11872370       4.10502614      -0.01004401       0.02185772       0.01015406
