31
Lattice="8.1 0.0 0.0 0.0 8.1 0.0 0.0 0.0 8.1" Properties=species:S:1:pos:R:3:REF_forces:R:3 REF_energy=-16659.93040811438 config_type=Default campaign_id=vacancy_migration_single_shot iteration=0 path_id=al_vacancy image_index=0 selection_reason=reference calculator_name=quantum_espresso dft_settings_hash=a5643ab6db3b6d99bb24f0895036b3c0f18cb3a802dde2e64724f7713d275cad structure_hash=0a068053333f674ba6014ccc63dc4ec54d7a02c2455cd941de87d36f26fb3518 pbc="T T T"
Al      -0.00000000       2.01023214       2.01023214       0.00000000       0.09192619       0.09192619
Al       2.01023214      -0.00000000       2.01023214       0.09192619       0.00000000       0.09192619
Al       2.01023214       2.01023214      -0.00000000       0.09192619       0.09192619       0.00000000
Al      -0.00000000      -0.00000000       4.05000000       0.00000000       0.00000000       0.00000000
Al      -0.00000000       2.01023214       6.08976786       0.00000000       0.09192619      -0.09192619
Al       2.01023214      -0.00000000       6.08976786       0.09192619       0.00000000      -0.09192619
Al       2.02850335       2.02850335       4.05000000       0.01262617       0.01262617      -0.00000000
Al      -0.00000000       4.05000000      -0.00000000       0.00000000       0.00000000       0.00000000
Al      -0.00000000       6.08976786       2.01023214       0.00000000      -0.09192619       0.09192619
Al       2.02850335       4.05000000       2.02850335       0.01262617      -0.00000000       0.01262617
Al       2.01023214       6.08976786      -0.00000000       0.09192619      -0.09192619      -0.00000000
Al      -0.00000000       4.05000000       4.05000000       0.00000000       0.00000000       0.00000000
Al      -0.00000000       6.08976786       6.08976786       0.00000000      -0.09192619      -0.09192619
Al       2.02850335       4.05000000       6.07149665       0.01262617       0.00000000      -0.01262617
Al       2.02850335       6.07149665       4.05000000       0.01262617      -0.01262617       0.00000000
Al       4.05000000      -0.00000000      -0.00000000       0.00000000       0.00000000       0.00000000
Al       4.05000000       2.02850335       2.02850335      -0.00000000       0.01262617       0.01262617
Al       6.08976786      -0.00000000       2.01023214      -0.09192619       0.00000000       0.09192619
Al       6.08976786       2.01023214      -0.00000000      -0.09192619       0.09192619       0.00000000
Al       4.05000000      -0.00000000       4.05000000       0.00000000       0.00000000       0.00000000
Al       4.05000000       2.02850335       6.07149665       0.00000000       0.01262617      -0.01262617
Al       6.08976786      -0.00000000       6.08976786      -0.09192619       0.00000000      -0.09192619
Al       6.07149665       2.02850335       4.05000000      -0.01262617       0.01262617      -0.00000000
Al       4.05000000       4.05000000      -0.00000000       0.00000000       0.00000000       0.00000000
Al       4.05000000       6.07149665       2.02850335      -0.00000000      -0.01262617       0.01262617
Al       6.07149665       4.05000000       2.02850335      -0.01262617      -0.00000000       0.01262617
Al       6.08976786       6.08976786      -0.00000000      -0.09192619      -0.09192619       0.00000000
Al       4.05000000       4.05000000       4.05000000       0.00000000       0.00000000       0.00000000
Al       4.05000000       6.07149665       6.07149665       0.00000000      -0.01262617      -0.01262617
Al       6.07149665       4.05000000       6.07149665      -0.01262617       0.00000000      -0.01262617
Al       6.07149665       6.07149665       4.05000000      -0.01262617      -0.01262617       0.00000000
31
Lattice="8.1 0.0 0.0 0.0 8.1 0.0 0.0 0.0 8.1" Properties=species:S:1:pos:R:3:REF_forces:R:3 REF_energy=-16659.47782116691 config_type=Default campaign_id=vacancy_migration_single_shot iteration=0 path_id=al_vacancy image_index=2 selection_reason=peak_plus_neighbors calculator_name=quantum_espresso dft_settings_hash=a5643ab6db3b6d99bb24f0895036b3c0f18cb3a802dde2e64724f7713d275cad structure_hash=a2ebfbe11342c3e352e20eca3fb76d90ab831dae351de2ecd166b1591438ae9d pbc="T T T"
Al      -0.00064654       1.39677395       1.39677395       0.00015941       0.35701979       0.35701979
Al       2.17756605      -0.07628764       2.04487032       0.03634589       0.01444394       0.03726171
Al       2.17756604       2.04487033      -0.07628762       0.03634589       0.03726171       0.01444394
Al      -0.00064319       0.02178269       3.99915021      -0.00002777      -0.03658757       0.02932292
Al      -0.00069946       1.98663242       6.12882624       0.00010413       0.06762798      -0.14005365
Al       1.98421085      -0.00525132       6.09199086       0.13880178      -0.08294687      -0.08308906
Al       1.95888092       2.01382096       3.98614584       0.10018689       0.03223906       0.05917600
Al      -0.00064314       3.99915021       0.02178270      -0.00002777       0.02932292      -0.03658757
Al      -0.00069941       6.12882624       1.98663241       0.00010413      -0.14005365       0.06762798
Al       1.95888093       3.98614586       2.01382096       0.10018689       0.05917600       0.03223906
Al       1.98421084       6.09199084      -0.00525130       0.13880178      -0.08308906      -0.08294687
Al      -0.00065001       4.03829926       4.03829926       0.00004757       0.03226657       0.03226657
Al      -0.00071041       6.07749247       6.07749248       0.00016841      -0.05245128      -0.05245128
Al       2.01706746       4.05132871       6.06067436       0.12311548      -0.01568553      -0.01265677
Al       2.01706746       6.06067434       4.05132870       0.12311548      -0.01265677      -0.01568553
Al       4.04921570      -0.03812269      -0.03812269       0.00076465      -0.01829623      -0.01829623
Al       4.04936860       2.04778941       2.04778941      -0.00019900      -0.06697261      -0.06697261
Al       5.92116371      -0.07625759       2.04486279      -0.03674415       0.01411433       0.03699740
Al       5.92116370       2.04486278      -0.07625761      -0.03674415       0.03699740       0.01411433
Al       4.04934980      -0.01132844       4.12178801      -0.00001080      -0.08625228      -0.16427087
Al       4.04932523       2.03735936       5.96557294       0.00020106       0.05206047       0.11356974
Al       6.11449280      -0.00524551       6.09195544      -0.13923938      -0.08296333      -0.08277512
Al       6.13983118       2.01384863       3.98605607      -0.10016889       0.03199378       0.05961668
Al       4.04934980       4.12178801      -0.01132844      -0.00001080      -0.16427087      -0.08625228
Al       4.04932525       5.96557294       2.03735935       0.00020106       0.11356974       0.05206047
Al       6.13983117       3.98605605       2.01384864      -0.10016889       0.05961668       0.03199378
Al       6.11449279       6.09195546      -0.00524552      -0.13923938      -0.08277512      -0.08296333
Al       4.04935861       4.04710369       4.04710369      -0.00020055      -0.01629488      -0.01629488
Al       4.04928501       6.06394195       6.06394195       0.00018898       0.03180506       0.03180506
Al       6.08155724       4.05131922       6.06064084      -0.12302909      -0.01574852      -0.01247062
Al       6.08155724       6.06064086       4.05131923      -0.12302909      -0.01247062      -0.01574852
31
Lattice="8.1 0.0 0.0 0.0 8.1 0.0 0.0 0.0 8.1" Properties=species:S:1:pos:R:3:REF_forces:R:3 REF_energy=-16659.310650887328 config_type=Default campaign_id=vacancy_migration_single_shot iteration=0 path_id=al_vacancy image_index=3 selection_reason=peak_plus_neighbors calculator_name=quantum_espresso dft_settings_hash=a5643ab6db3b6d99bb24f0895036b3c0f18cb3a802dde2e64724f7713d275cad structure_hash=8c926ece8798145a504de8aa97a59394922cd67be966263b6767b66982d4839c pbc="T T T"
Al      -0.00063809       1.01280027       1.01280027       0.00006865       0.00034221       0.00034221
Al       2.21168252      -0.05912791       2.08412108       0.06907911      -0.00913024       0.00952131
Al       2.21168252       2.08412109      -0.05912789       0.06907911       0.00952131      -0.00913024
Al      -0.00062154       0.04458229       3.97964965      -0.00014552      -0.04813799       0.10063118
Al      -0.00070330       1.98041194       6.14537760       0.00009770       0.04829354      -0.10079213
Al       1.96859372       0.00094652       6.11759861       0.13987290      -0.07392256      -0.07909767
Al       1.96860234       2.02404197       4.00745902       0.14002254       0.07417761       0.07857343
Al      -0.00062147       3.97964965       0.04458229      -0.00014552       0.10063118      -0.04813799
Al      -0.00070324       6.14537760       1.98041194       0.00009770      -0.10079213       0.04829354
Al       1.96860234       4.00745905       2.02404197       0.14002254       0.07857343       0.07417761
Al       1.96859372       6.11759859       0.00094653       0.13987290      -0.07909767      -0.07392256
Al      -0.00064654       4.04718211       4.04718211       0.00002314       0.02570692       0.02570692
Al      -0.00067840       6.07783696       6.07783697      -0.00004731      -0.02582159      -0.02582159
Al       2.01444737       4.05785154       6.06719199       0.14478139      -0.01591693       0.01571355
Al       2.01444737       6.06719198       4.05785154       0.14478139       0.01571355      -0.01591693
Al       4.04915394      -0.03723977      -0.03723977       0.00105312       0.05113590       0.05113590
Al       4.04940873       2.06224093       2.06224094      -0.00029388      -0.05110787      -0.05110787
Al       5.88704768      -0.05913609       2.08410156      -0.06951980      -0.00939533       0.00926368
Al       5.88704768       2.08410155      -0.05913611      -0.06951980       0.00926368      -0.00939533
Al       4.04932570      -0.01503294       4.15588732       0.00006736      -0.08233315      -0.17006408
Al       4.04928424       2.04003928       5.96911444       0.00031085       0.08242288       0.16990981
Al       6.13006775       0.00093176       6.11752497      -0.14025548      -0.07396910      -0.07866187
Al       6.13009324       2.02408076       4.00741260      -0.13999682       0.07384851       0.07887836
Al       4.04932571       4.15588732      -0.01503294       0.00006736      -0.17006408      -0.08233315
Al       4.04928424       5.96911444       2.04003927       0.00031085       0.16990981       0.08242288
Al       6.13009323       4.00741259       2.02408076      -0.13999682       0.07887836       0.07384851
Al       6.13006775       6.11752500       0.00093176      -0.14025548      -0.07866187      -0.07396910
Al       4.04934939       4.05708599       4.05708599      -0.00019335      -0.03791169      -0.03791169
Al       4.04929370       6.06792400       6.06792400       0.00013833       0.03782247       0.03782247
Al       6.08417650       4.05782463       6.06714612      -0.14468857      -0.01590202       0.01592284
Al       6.08417650       6.06714614       4.05782464      -0.14468857       0.01592284      -0.01590202
31
Lattice="8.1 0.0 0.0 0.0 8.1 0.0 0.0 0.0 8.1" Properties=species:S:1:pos:R:3:REF_forces:R:3 REF_energy=-16659.48166967293 config_type=Default campaign_id=vacancy_migration_single_shot iteration=0 path_id=al_vacancy image_index=4 selection_reason=peak_plus_neighbors calculator_name=quantum_espresso dft_settings_hash=a5643ab6db3b6d99bb24f0895036b3c0f18cb3a802dde2e64724f7713d275cad structure_hash=117772719e22cf9de88435370e5b38d98078ae68d947a3843140bf998e8ef885 pbc="T T T"
Al      -0.00062653       0.62424041       0.62424042      -0.00010670      -0.35952301      -0.35952301
Al       2.17667076      -0.01929867       2.10136044       0.03654000      -0.03728768      -0.01466686
Al       2.17667077       2.10136043      -0.01929867       0.03654000      -0.01466686      -0.03728768
Al      -0.00065122       0.03807674       3.99676958       0.00010002      -0.06744158       0.13957593
Al      -0.00065118       2.00342832       6.12534703       0.00001388       0.03669633      -0.02779465
Al       1.95902502       0.01113127       6.13888500       0.09937751      -0.03151761      -0.05901119
Al       1.98474005       2.03052346       4.03347348       0.13801990       0.08206498       0.08244577
Al      -0.00065112       3.99676957       0.03807674       0.00010002       0.13957593      -0.06744158
Al      -0.00065108       6.12534703       2.00342833       0.00001388      -0.02779465       0.03669633
Al       1.98474009       4.03347346       2.03052347       0.13801990       0.08244577       0.08206498
Al       1.95902507       6.13888501       0.01113125       0.09937751      -0.05901119      -0.03151761
Al      -0.00063010       4.04775182       4.04775182       0.00013935       0.05228004       0.05228004
Al      -0.00075117       6.08701808       6.08701808       0.00017175      -0.03244732      -0.03244732
Al       2.01729511       4.06432020       6.07373274       0.12234826       0.01313628       0.01593287
Al       2.01729511       6.07373275       4.06432021       0.12234826       0.01593287       0.01313628
Al       4.04905299      -0.02268122      -0.02268123       0.00093305       0.06727034       0.06727034
Al       4.04950967       2.06303294       2.06303293      -0.00043529       0.01856234       0.01856234
Al       5.92200558      -0.01939437       2.10128593      -0.03657343      -0.03710462      -0.01484452
Al       5.92200558       2.10128594      -0.01939437      -0.03657343      -0.01484452      -0.03710462
Al       4.04938239      -0.01221983       4.15896804      -0.00023937      -0.05220908      -0.11224691
Al       4.04929993       2.03579954       6.00395784       0.00001568       0.08754992       0.16327636
Al       6.13945528       0.01114747       6.13893747      -0.09923533      -0.03152558      -0.05895437
Al       6.11411014       2.03050828       4.03353108      -0.13825644       0.08210201       0.08226065
Al       4.04938240       4.15896804      -0.01221984      -0.00023937      -0.11224691      -0.05220908
Al       4.04929993       6.00395784       2.03579954       0.00001568       0.16327636       0.08754992
Al       6.11411017       4.03353110       2.03050826      -0.13825644       0.08226065       0.08210201
Al       6.13945533       6.13893747       0.01114749      -0.09923533      -0.05895437      -0.03152558
Al       4.04947026       4.06117248       4.06117247      -0.00032679      -0.03195958      -0.03195958
Al       4.04923662       6.07780928       6.07780927       0.00013010       0.01648720       0.01648720
Al       6.08139416       4.06434818       6.07378197      -0.12236317       0.01310208       0.01579146
Al       6.08139416       6.07378196       4.06434817      -0.12236317       0.01579146       0.01310208
