9
Lattice="20.0 0.0 0.0 0.0 20.0 0.0 0.0 0.0 20.0" Properties=species:S:1:pos:R:3 pbc="F F F"
C        9.99636150      11.16337178       9.92499950
O       10.03195191       9.97936361      10.70019682
C       10.00737793       8.80546490       9.92209185
H        9.10051186      11.73525640      10.16526107
H       10.87447714      11.76829176      10.14481174
H        9.99039202      10.94644093       8.85561222
H       10.01839600       7.96219864      10.60574710
H        9.10550259       8.74900400       9.30573873
H       10.88260988       8.74228125       9.26970043
