9
Lattice="20.0 0.0 0.0 0.0 20.0 0.0 0.0 0.0 20.0" Properties=species:S:1:pos:R:3 pbc="F F F"
C       10.01400091      11.15378070       9.91960961
O       10.16565888       9.98164622      10.69199292
C        9.99897478       8.80991076       9.92770961
H        8.97695319      11.49933348       9.92315960
H       10.64858416      11.92387310      10.34839476
H       10.32172755      10.99100105       8.88438330
H       10.00760126       7.96637279      10.61142756
H        9.05477608       8.80945752       9.37478155
H       10.82029565       8.69689559       9.21450589
