9
Lattice="20.0 0.0 0.0 0.0 20.0 0.0 0.0 0.0 20.0" Properties=species:S:1:pos:R:3 pbc="F F F"
C       10.65835204       9.17880543       9.87049633
C        9.47543931      10.11763808       9.82846892
O        9.44502069      10.83950868      11.05635894
H        8.69031490      11.42809502      11.05067967
H        9.56995828      10.80537220       8.98400676
H        8.54965732       9.55170198       9.69671462
H       11.58569920       9.74120099       9.95971301
H       10.57597628       8.50997163      10.72497212
H       10.70118995       8.57946880       8.96256961
