9
Lattice="20.0 0.0 0.0 0.0 20.0 0.0 0.0 0.0 20.0" Properties=species:S:1:pos:R:3 pbc="F F F"
C       10.85441233       9.31183623       9.91553445
C        9.72117771      10.32707328       9.80758475
O        8.87089483      10.17503711      10.94490446
H        8.15876536      10.81233323      10.87928174
H       10.11998100      11.34319824       9.77535308
H        9.14903092      10.16382025       8.89183769
H       11.82798818       9.79499350       9.95663438
H       10.72216721       8.73673457      10.82965514
H       10.85613088       8.61870196       9.07752499
