9
Lattice="20.0 0.0 0.0 0.0 20.0 0.0 0.0 0.0 20.0" Properties=species:S:1:pos:R:3 pbc="F F F"
C       11.01925364       9.45738938       9.97818667
C        9.88602171      10.45663363       9.98175911
O        8.66606176       9.73569090      10.12893225
H        7.93905798      10.35791777      10.14868132
H       10.01054872      11.16567751      10.80433468
H        9.88271050      11.02437853       9.04754790
H       11.97725580       9.96892630       9.90046020
H       11.00935122       8.87399522      10.89679310
H       10.92025554       8.77561607       9.13589057
