15
Lattice="6.294 0.0 0.0 0.0 6.294 0.0 0.0 0.0 6.294" Properties=species:S:1:pos:R:3:REF_forces:R:3 REF_energy=-27986.956879277994 config_type=Default campaign_id=vacancy_migration_single_shot iteration=0 path_id=mo_vacancy image_index=0 selection_reason=reference calculator_name=quantum_espresso dft_settings_hash=0e7b70ae6ed15e202d151597c20f95b897fd7ee9a570018990ec9fd2d3c51426 structure_hash=247e2c2216134e7d3cecdb8e348bc292feb82aa377585deefd9c3a6ed7fb81da pbc="T T T"
Mo       1.54499645       1.54499645       1.54499645       0.38212738       0.38212738       0.38212738
Mo      -0.00000000      -0.00000000       3.14700000       0.00000000       0.00000000       0.00000000
Mo       1.54499645       1.54499645       4.74900355       0.38212738       0.38212738      -0.38212738
Mo       0.00000000       3.14700000       0.00000000       0.00000000       0.00000000       0.00000000
Mo       1.54499645       4.74900355       1.54499645       0.38212738      -0.38212738       0.38212738
Mo      -0.00000000       3.14700000       3.14700000       0.00000000       0.00000000       0.00000000
Mo       1.54499645       4.74900355       4.74900355       0.38212738      -0.38212738      -0.38212738
Mo       3.14700000       0.00000000       0.00000000       0.00000000       0.00000000       0.00000000
Mo       4.74900355       1.54499645       1.54499645      -0.38212738       0.38212738       0.38212738
Mo       3.14700000       0.00000000       3.14700000       0.00000000       0.00000000       0.00000000
Mo       4.74900355       1.54499645       4.74900355      -0.38212738       0.38212738      -0.38212738
Mo       3.14700000       3.14700000      -0.00000000       0.00000000       0.00000000       0.00000000
Mo       4.74900355       4.74900355       1.54499645      -0.38212738      -0.38212738       0.38212738
Mo       3.14700000       3.14700000       3.14700000       0.00000000       0.00000000       0.00000000
Mo       4.74900355       4.74900355       4.74900355      -0.38212738      -0.38212738      -0.38212738
15
Lattice="6.294 0.0 0.0 0.0 6.294 0.0 0.0 0.0 6.294" Properties=species:S:1:pos:R:3:REF_forces:R:3 REF_energy=-27985.599774774168 config_type=Default campaign_id=vacancy_migration_single_shot iteration=0 path_id=mo_vacancy image_index=2 selection_reason=peak_plus_neighbors calculator_name=quantum_espresso dft_settings_hash=0e7b70ae6ed15e202d151597c20f95b897fd7ee9a570018990ec9fd2d3c51426 structure_hash=a9ef9be8652cf790a2601b749d6a09f2569af327c16bcd324a1fd3e2fc91525f pbc="T T T"
Mo       1.10859842       1.10859842       1.10859842       0.76068375       0.76068375       0.76068375
Mo      -0.02178489      -0.02178489       3.16278793      -0.81438716      -0.81438716       0.28892000
Mo       1.53757395       1.53757395       4.65316645       0.70337541       0.70337541      -0.10451714
Mo      -0.02178489       3.16278793      -0.02178489      -0.81438716       0.28892000      -0.81438716
Mo       1.53757395       4.65316645       1.53757395       0.70337541      -0.10451714       0.70337541
Mo      -0.00453649       3.08645156       3.08645156      -0.46525757       0.39324277       0.39324277
Mo       1.55696030       4.76578118       4.76578118       0.07999293      -0.55395549      -0.55395549
Mo       3.16278793      -0.02178489      -0.02178489       0.28892000      -0.81438716      -0.81438716
Mo       4.65316645       1.53757395       1.53757395      -0.10451714       0.70337541       0.70337541
Mo       3.08645156      -0.00453649       3.08645156       0.39324277      -0.46525757       0.39324277
Mo       4.76578118       1.55696030       4.76578118      -0.55395549       0.07999293      -0.55395549
Mo       3.08645156       3.08645156      -0.00453649       0.39324277       0.39324277      -0.46525757
Mo       4.76578118       4.76578118       1.55696030      -0.55395549      -0.55395549       0.07999293
Mo       3.10842842       3.10842842       3.10842842      -0.21238726      -0.21238726      -0.21238726
Mo       4.68606977       4.68606977       4.68606977       0.19601422       0.19601422       0.19601422
15
Lattice="6.294 0.0 0.0 0.0 6.294 0.0 0.0 0.0 6.294" Properties=species:S:1:pos:R:3:REF_forces:R:3 REF_energy=-27985.24102614791 config_type=Default campaign_id=vacancy_migration_single_shot iteration=0 path_id=mo_vacancy image_index=3 selection_reason=peak_plus_neighbors calculator_name=quantum_espresso dft_settings_hash=0e7b70ae6ed15e202d151597c20f95b897fd7ee9a570018990ec9fd2d3c51426 structure_hash=5adf6fb1aff05288571a3f1b9611574e3edd28522366ed1ed7e9cb9e497502a3 pbc="T T T"
Mo       0.78675000       0.78675000       0.78675000       0.00000000       0.00000000       0.00000000
Mo      -0.00174604      -0.00174604       3.17154213      -0.40420467      -0.40420467       0.58401426
Mo       1.57524604       1.57524604       4.69595787       0.40420467       0.40420467      -0.58401426
Mo      -0.00174604       3.17154213      -0.00174604      -0.40420467       0.58401426      -0.40420467
Mo       1.57524604       4.69595787       1.57524604       0.40420467      -0.58401426       0.40420467
Mo       0.01671134       3.06069184       3.06069184       0.07498237       0.88855500       0.88855500
Mo       1.55678866       4.80680816       4.80680816      -0.07498237      -0.88855500      -0.88855500
Mo       3.17154213      -0.00174604      -0.00174604       0.58401426      -0.40420467      -0.40420467
Mo       4.69595787       1.57524604       1.57524604      -0.58401426       0.40420467       0.40420467
Mo       3.06069184       0.01671134       3.06069184       0.88855500       0.07498237       0.88855500
Mo       4.80680816       1.55678866       4.80680816      -0.88855500      -0.07498237      -0.88855500
Mo       3.06069184       3.06069184       0.01671134       0.88855500       0.88855500       0.07498237
Mo       4.80680816       4.80680816       1.55678866      -0.88855500      -0.88855500      -0.07498237
Mo       3.17832253       3.17832253       3.17832253      -0.24810014      -0.24810014      -0.24810014
Mo       4.68917747       4.68917747       4.68917747       0.24810014       0.24810014       0.24810014
15
Lattice="6.294 0.0 0.0 0.0 6.294 0.0 0.0 0.0 6.294" Properties=species:S:1:pos:R:3:REF_forces:R:3 REF_energy=-27985.59977395783 config_type=Default campaign_id=vacancy_migration_single_shot iteration=0 path_id=mo_vacancy image_index=4 selection_reason=peak_plus_neighbors calculator_name=quantum_espresso dft_settings_hash=0e7b70ae6ed15e202d151597c20f95b897fd7ee9a570018990ec9fd2d3c51426 structure_hash=32fe09d35f47682d296ac252a7a78a97b4b93246de7c40564ada3d8ec92a5eb3 pbc="T T T"
Mo       0.46490158       0.46490158       0.46490158      -0.76068915      -0.76068915      -0.76068915
Mo       0.03592605       0.03592605       3.21433355      -0.70336486      -0.70336486       0.10452126
Mo       1.59528489       1.59528489       4.70471207       0.81448949       0.81448949      -0.28905704
Mo       0.03592605       3.21433355       0.03592605      -0.70336486       0.10452126      -0.70336486
Mo       1.59528489       4.70471207       1.59528489       0.81448949      -0.28905704       0.81448949
Mo       0.01653970       3.10171882       3.10171882      -0.07996851       0.55397323       0.55397323
Mo       1.57803649       4.78104844       4.78104844       0.46532982      -0.39331811      -0.39331811
Mo       3.21433355       0.03592605       0.03592605       0.10452126      -0.70336486      -0.70336486
Mo       4.70471207       1.59528489       1.59528489      -0.28905704       0.81448949       0.81448949
Mo       3.10171882       0.01653970       3.10171882       0.55397323      -0.07996851       0.55397323
Mo       4.78104844       1.57803649       4.78104844      -0.39331811       0.46532982      -0.39331811
Mo       3.10171882       3.10171882       0.01653970       0.55397323       0.55397323      -0.07996851
Mo       4.78104844       4.78104844       1.57803649      -0.39331811      -0.39331811       0.46532982
Mo       3.18143023       3.18143023       3.18143023      -0.19596280      -0.19596280      -0.19596280
Mo       4.75907158       4.75907158       4.75907158       0.21226642       0.21226642       0.21226642
