31
Lattice="7.048 0.0 0.0 0.0 7.048 0.0 0.0 0.0 7.048" Properties=species:S:1:pos:R:3:initial_magmoms:R:1:REF_forces:R:3 REF_energy=-144785.67935884118 config_type=Default campaign_id=vacancy_migration_single_shot iteration=0 path_id=ni_vacancy image_index=0 selection_reason=reference calculator_name=quantum_espresso dft_settings_hash=27282df649c2ad61731c6520f6faddbbf6ee1e832fdc7be115136700600adf11 structure_hash=e1d668664aae0f5761364df8df85a4e1c06d87a75a7f5287694b73e9f0df785b pbc="T T T"
Ni      -0.00000000       1.74590844       1.74590844       0.60000000       0.00000000      -0.01467611      -0.01467611
Ni       1.74590844      -0.00000000       1.74590844       0.60000000      -0.01467611       0.00000000      -0.01467611
Ni       1.74590844       1.74590844      -0.00000000       0.60000000      -0.01467611      -0.01467611       0.00000000
Ni      -0.00000000      -0.00000000       3.52400000       0.60000000       0.00000000       0.00000000       0.00000000
Ni      -0.00000000       1.74590844       5.30209156       0.60000000       0.00000000      -0.01467611       0.01467611
Ni       1.74590844      -0.00000000       5.30209156       0.60000000      -0.01467611       0.00000000       0.01467611
Ni       1.75796265       1.75796265       3.52400000       0.60000000      -0.00394227      -0.00394227      -0.00000000
Ni      -0.00000000       3.52400000      -0.00000000       0.60000000       0.00000000       0.00000000       0.00000000
Ni      -0.00000000       5.30209156       1.74590844       0.60000000       0.00000000       0.01467611      -0.01467611
Ni       1.75796265       3.52400000       1.75796265       0.60000000      -0.00394227       0.00000000      -0.00394227
Ni       1.74590844       5.30209156      -0.00000000       0.60000000      -0.01467611       0.01467611       0.00000000
Ni      -0.00000000       3.52400000       3.52400000       0.60000000       0.00000000       0.00000000       0.00000000
Ni      -0.00000000       5.30209156       5.30209156       0.60000000      -0.00000000       0.01467611       0.01467611
Ni       1.75796265       3.52400000       5.29003735       0.60000000      -0.00394227       0.00000000       0.00394227
Ni       1.75796265       5.29003735       3.52400000       0.60000000      -0.00394227       0.00394227       0.00000000
Ni       3.52400000      -0.00000000      -0.00000000       0.60000000       0.00000000       0.00000000       0.00000000
Ni       3.52400000       1.75796265       1.75796265       0.60000000       0.00000000      -0.00394227      -0.00394227
Ni       5.30209156      -0.00000000       1.74590844       0.60000000       0.01467611       0.00000000      -0.01467611
Ni       5.30209156       1.74590844      -0.00000000       0.60000000       0.01467611      -0.01467611      -0.00000000
Ni       3.52400000      -0.00000000       3.52400000       0.60000000       0.00000000       0.00000000       0.00000000
Ni       3.52400000       1.75796265       5.29003735       0.60000000      -0.00000000      -0.00394227       0.00394227
Ni       5.30209156      -0.00000000       5.30209156       0.60000000       0.01467611      -0.00000000       0.01467611
Ni       5.29003735       1.75796265       3.52400000       0.60000000       0.00394227      -0.00394227       0.00000000
Ni       3.52400000       3.52400000      -0.00000000       0.60000000       0.00000000       0.00000000       0.00000000
Ni       3.52400000       5.29003735       1.75796265       0.60000000       0.00000000       0.00394227      -0.00394227
Ni       5.29003735       3.52400000       1.75796265       0.60000000       0.00394227       0.00000000      -0.00394227
Ni       5.30209156       5.30209156       0.00000000       0.60000000       0.01467611       0.01467611      -0.00000000
Ni       3.52400000       3.52400000       3.52400000       0.60000000       0.00000000       0.00000000       0.00000000
Ni       3.52400000       5.29003735       5.29003735       0.60000000      -0.00000000       0.00394227       0.00394227
Ni       5.29003735       3.52400000       5.29003735       0.60000000       0.00394227      -0.00000000       0.00394227
Ni       5.29003735       5.29003735       3.52400000       0.60000000       0.00394227       0.00394227       0.00000000
31
Lattice="7.048 0.0 0.0 0.0 7.048 0.0 0.0 0.0 7.048" Properties=species:S:1:pos:R:3:initial_magmoms:R:1:REF_forces:R:3 REF_energy=-144784.9947574306 config_type=Default campaign_id=vacancy_migration_single_shot iteration=0 path_id=ni_vacancy image_index=2 selection_reason=peak_plus_neighbors calculator_name=quantum_espresso dft_settings_hash=27282df649c2ad61731c6520f6faddbbf6ee1e832fdc7be115136700600adf11 structure_hash=ce48aa88f29a4f143632edd34a7d55ebc9cf4d7919b159b9cd70555adf63e19e pbc="T T T"
Ni      -0.00050799       1.22383122       1.22383122       0.60000000      -0.00175786       0.73379696       0.73379696
Ni       1.88630377      -0.04979258       1.77244461       0.60000000      -0.11879576      -0.00353038      -0.06128944
Ni       1.88630377       1.77244461      -0.04979258       0.60000000      -0.11879576      -0.06128944      -0.00353038
Ni      -0.00055944       0.01509550       3.46723140       0.60000000      -0.00091223      -0.09380567       0.10774773
Ni      -0.00057695       1.72795146       5.34754910       0.60000000      -0.00074793      -0.02463168      -0.07425860
Ni       1.71926641      -0.00290094       5.29562269       0.60000000       0.03720103      -0.04046891       0.00053402
Ni       1.70349312       1.74632388       3.48432945       0.60000000      -0.00065280       0.00836817      -0.03912293
Ni      -0.00055944       3.46723140       0.01509550       0.60000000      -0.00091223       0.10774773      -0.09380567
Ni      -0.00057695       5.34754910       1.72795146       0.60000000      -0.00074793      -0.07425860      -0.02463168
Ni       1.70349312       3.48432945       1.74632388       0.60000000      -0.00065280      -0.03912293       0.00836817
Ni       1.71926641       5.29562269      -0.00290094       0.60000000       0.03720103       0.00053402      -0.04046891
Ni      -0.00059771       3.51238931       3.51238931       0.60000000      -0.00037461      -0.03759004      -0.03759004
Ni      -0.00057708       5.29150271       5.29150271       0.60000000      -0.00036330      -0.00145576      -0.00145576
Ni       1.74790236       3.52273289       5.27441423       0.60000000       0.03536424      -0.01494017      -0.02260565
Ni       1.74790236       5.27441423       3.52273289       0.60000000       0.03536424      -0.02260565      -0.01494017
Ni       3.52340937      -0.03905627      -0.03905627       0.60000000       0.00071451      -0.04575767      -0.04575767
Ni       3.52337212       1.78213137       1.78213137       0.60000000       0.00180671      -0.00441124      -0.00441124
Ni       5.16054808      -0.04977368       1.77236199       0.60000000       0.11917886      -0.00261327      -0.06097911
Ni       5.16054808       1.77236199      -0.04977368       0.60000000       0.11917886      -0.06097911      -0.00261327
Ni       3.52343449      -0.01375964       3.57567638       0.60000000       0.00081401      -0.02785790      -0.19980865
Ni       3.52344986       1.76637839       5.20364079       0.60000000       0.00057901      -0.04196400       0.09725223
Ni       5.32755416      -0.00290314       5.29566620       0.60000000      -0.03693441      -0.04000122       0.00034247
Ni       5.34341047       1.74632112       3.48434075       0.60000000       0.00002185       0.00808509      -0.03992486
Ni       3.52343449       3.57567638      -0.01375964       0.60000000       0.00081401      -0.19980865      -0.02785790
Ni       3.52344986       5.20364079       1.76637839       0.60000000       0.00057901       0.09725223      -0.04196400
Ni       5.34341047       3.48434075       1.74632112       0.60000000       0.00002185      -0.03992486       0.00808509
Ni       5.32755416       5.29566620      -0.00290314       0.60000000      -0.03693441       0.00034247      -0.04000122
Ni       3.52340654       3.51464283       3.51464283       0.60000000       0.00087083      -0.00455342      -0.00455342
Ni       3.52345010       5.28332407       5.28332407       0.60000000       0.00011261      -0.03667319      -0.03667319
Ni       5.29897500       3.52271010       5.27446292       0.60000000      -0.03562058      -0.01519573      -0.02268716
Ni       5.29897500       5.27446292       3.52271010       0.60000000      -0.03562058      -0.02268716      -0.01519573
31
Lattice="7.048 0.0 0.0 0.0 7.048 0.0 0.0 0.0 7.048" Properties=species:S:1:pos:R:3:initial_magmoms:R:1:REF_forces:R:3 REF_energy=-144784.68380913758 config_type=Default campaign_id=vacancy_migration_single_shot iteration=0 path_id=ni_vacancy image_index=3 selection_reason=peak_plus_neighbors calculator_name=quantum_espresso dft_settings_hash=27282df649c2ad61731c6520f6faddbbf6ee1e832fdc7be115136700600adf11 structure_hash=6d591273d7d5110878dec71a38510fd48364fc59308c25e47cab0db7b8932bdc pbc="T T T"
Ni      -0.00060739       0.88102784       0.88102784       0.60000000       0.00183705      -0.00063018      -0.00063018
Ni       1.91388330      -0.03853293       1.80062004       0.60000000      -0.04659610       0.01929587      -0.02172094
Ni       1.91388330       1.80062004      -0.03853293       0.60000000      -0.04659610      -0.02172094       0.01929587
Ni      -0.00061274       0.03391783       3.44622315       0.60000000       0.00106367      -0.02556551       0.07998008
Ni      -0.00056207       1.72808141       5.36378697       0.60000000       0.00064663       0.02412929      -0.07881845
Ni       1.70713306       0.00532333       5.31054776       0.60000000       0.02398248      -0.05008072       0.01182759
Ni       1.70720129       1.75674185       3.49939306       0.60000000       0.02279129       0.04750370      -0.00961233
Ni      -0.00061274       3.44622315       0.03391783       0.60000000       0.00106367       0.07998008      -0.02556551
Ni      -0.00056207       5.36378697       1.72808141       0.60000000       0.00064663      -0.07881845       0.02412929
Ni       1.70720129       3.49939306       1.75674185       0.60000000       0.02279129      -0.00961233       0.04750370
Ni       1.70713306       5.31054776       0.00532333       0.60000000       0.02398248       0.01182759      -0.05008072
Ni      -0.00057546       3.51735408       3.51735408       0.60000000       0.00042320      -0.02290082      -0.02290082
Ni      -0.00061616       5.29265128       5.29265128       0.60000000       0.00092457       0.02441468       0.02441468
Ni       1.74561609       3.52981835       5.28017598       0.60000000       0.03710308       0.00547851      -0.00360006
Ni       1.74561609       5.28017598       3.52981835       0.60000000       0.03710308      -0.00360006       0.00547851
Ni       3.52350494      -0.03536247      -0.03536247       0.60000000      -0.00265338      -0.02193331      -0.02193331
Ni       3.52329505       1.79736877       1.79736877       0.60000000       0.00046254       0.02035285       0.02035285
Ni       5.13295584      -0.03858244       1.80050044       0.60000000       0.04616467       0.01983118      -0.02012068
Ni       5.13295584       1.80050044      -0.03858244       0.60000000       0.04616467      -0.02012068       0.01983118
Ni       3.52342687      -0.01095375       3.60197672       0.60000000      -0.00079910       0.00623107      -0.12832247
Ni       3.52345679       1.77295966       5.20802545       0.60000000      -0.00132463      -0.00786295       0.13007468
Ni       5.33959531       0.00525795       5.31060213       0.60000000      -0.02270875      -0.04970637       0.01074181
Ni       5.33967228       1.75668154       3.49946166       0.60000000      -0.02328340       0.04840744      -0.01037312
Ni       3.52342687       3.60197672      -0.01095375       0.60000000      -0.00079910      -0.12832247       0.00623107
Ni       3.52345679       5.20802545       1.77295966       0.60000000      -0.00132463       0.13007468      -0.00786295
Ni       5.33967228       3.49946166       1.75668154       0.60000000      -0.02328340      -0.01037312       0.04840744
Ni       5.33959531       5.31060213       0.00525795       0.60000000      -0.02270875       0.01074181      -0.04970637
Ni       3.52338383       3.52174859       3.52174859       0.60000000      -0.00007713       0.01949410       0.01949410
Ni       3.52345188       5.28825295       5.28825295       0.60000000      -0.00114131      -0.01789334      -0.01789334
Ni       5.30121009       3.52982178       5.28019025       0.60000000      -0.03692747       0.00551579      -0.00413845
Ni       5.30121009       5.28019025       3.52982178       0.60000000      -0.03692747      -0.00413845       0.00551579
31
Lattice="7.048 0.0 0.0 0.0 7.048 0.0 0.0 0.0 7.048" Properties=species:S:1:pos:R:3:initial_magmoms:R:1:REF_forces:R:3 REF_energy=-144784.993486659 config_type=Default campaign_id=vacancy_migration_single_shot iteration=0 path_id=ni_vacancy image_index=4 selection_reason=peak_plus_neighbors calculator_name=quantum_espresso dft_settings_hash=27282df649c2ad61731c6520f6faddbbf6ee1e832fdc7be115136700600adf11 structure_hash=e38cf69f7b3a3449ef660cb0483b56a0f4398ca6b92b9e29e15dbb460400a7f6 pbc="T T T"
Ni      -0.00046801       0.53893122       0.53893122       0.60000000      -0.00036690      -0.73207792      -0.73207792
Ni       1.88647322      -0.01062450       1.81188020       0.60000000      -0.11846409       0.06216876       0.00368285
Ni       1.88647322       1.81188020      -0.01062450       0.60000000      -0.11846409       0.00368285       0.06216876
Ni      -0.00054715       0.03402107       3.46240071       0.60000000       0.00079524       0.02625353       0.07331372
Ni      -0.00063561       1.74686549       5.34282046       0.60000000       0.00166119       0.09320429      -0.10844553
Ni       1.70351425       0.01563345       5.32561020       0.60000000      -0.00017484      -0.00666250       0.03874113
Ni       1.71929644       1.76491767       3.51443487       0.60000000       0.03765843       0.04080804      -0.00127090
Ni      -0.00054715       3.46240071       0.03402107       0.60000000       0.00079524       0.07331372       0.02625353
Ni      -0.00063561       5.34282046       1.74686549       0.60000000       0.00166119      -0.10844553       0.09320429
Ni       1.71929644       3.51443487       1.76491767       0.60000000       0.03765843      -0.00127090       0.04080804
Ni       1.70351425       5.32561020       0.01563345       0.60000000      -0.00017484       0.03874113      -0.00666250
Ni      -0.00051062       3.51850786       3.51850786       0.60000000       0.00190570       0.00006402       0.00006402
Ni      -0.00060289       5.29758736       5.29758736       0.60000000       0.00170413       0.03805207       0.03805207
Ni       1.74794537       3.53557456       5.28720567       0.60000000       0.03623841       0.02074469       0.01466017
Ni       1.74794537       5.28720567       3.53557456       0.60000000       0.03623841       0.01466017       0.02074469
Ni       3.52342964      -0.02017312      -0.02017312       0.60000000      -0.00041240       0.00544945       0.00544945
Ni       3.52334611       1.80111343       1.80111343       0.60000000      -0.00007662       0.04614333       0.04614333
Ni       5.16040162      -0.01054553       1.81170971       0.60000000       0.11859573       0.06251252       0.00386231
Ni       5.16040162       1.81170971      -0.01054553       0.60000000       0.11859573       0.00386231       0.06251252
Ni       3.52344733      -0.00435058       3.60640028       0.60000000      -0.00069445       0.04278598      -0.09839123
Ni       3.52352575       1.77573461       5.23423323       0.60000000      -0.00157866       0.02871511       0.19933146
Ni       5.34334692       0.01561692       5.32565458       0.60000000       0.00045791      -0.00650001       0.03932605
Ni       5.32760668       1.76492706       3.51445182       0.60000000      -0.03770986       0.03956388      -0.00215278
Ni       3.52344733       3.60640028      -0.00435058       0.60000000      -0.00069445      -0.09839123       0.04278598
Ni       3.52352575       5.23423323       1.77573461       0.60000000      -0.00157866       0.19933146       0.02871511
Ni       5.32760668       3.51445182       1.76492706       0.60000000      -0.03770986      -0.00215278       0.03956388
Ni       5.34334692       5.32565458       0.01561692       0.60000000       0.00045791       0.03932605      -0.00650001
Ni       3.52343466       3.52668046       3.52668046       0.60000000      -0.00190622       0.03523620       0.03523620
Ni       3.52351960       5.29529184       5.29529184       0.60000000      -0.00168304       0.00447321       0.00447321
Ni       5.29898360       3.53556016       5.28722040       0.60000000      -0.03636748       0.02055263       0.01585574
Ni       5.29898360       5.28722040       3.53556016       0.60000000      -0.03636748       0.01585574       0.02055263
