8
Lattice="20.0 0.0 0.0 0.0 20.0 0.0 0.0 0.0 20.0" Properties=species:S:1:pos:R:3 pbc="F F F"
C       10.00000015      10.00000001       9.23167011
C       10.00000003      10.00000001      10.76807210
H       11.01131106      10.00000000       8.83166619
H        9.49434440      10.87582121       8.83166612
H        9.49434439       9.12417878       8.83166612
H        9.49438191      10.87575629      11.16841979
H        9.49438190       9.12424370      11.16841979
H       11.01123617      10.00000000      11.16841979
