8
Lattice="20.0 0.0 0.0 0.0 20.0 0.0 0.0 0.0 20.0" Properties=species:S:1:pos:R:3 pbc="F F F"
C       10.00000029      10.00000015       9.23864547
C       10.00000008      10.00000018      10.76150719
H       11.01450792      10.01930471       8.84383398
H        9.47602744      10.86893731       8.84383391
H        9.50946438       9.11175787       8.84383389
H       10.39919655      10.93286182      11.15611509
H        8.99251963       9.87928346      11.15611524
H       10.60828372       9.18785450      11.15611523
