8
Lattice="20.0 0.0 0.0 0.0 20.0 0.0 0.0 0.0 20.0" Properties=species:S:1:pos:R:3 pbc="F F F"
C       10.00000026       9.99999989       9.23864550
C       10.00000008       9.99999993      10.76150716
H       11.01450793       9.98069529       8.84383398
H        9.50946438      10.88824213       8.84383387
H        9.47602744       9.13106268       8.84383390
H        8.99251966      10.12071653      11.15611523
H       10.39919658       9.06713813      11.15611516
H       10.60828367      10.81214542      11.15611520
