31
Lattice="7.848 0.0 0.0 0.0 7.848 0.0 0.0 0.0 7.848" Properties=species:S:1:pos:R:3:REF_forces:R:3 REF_energy=-88864.46415758996 config_type=Default campaign_id=vacancy_migration_single_shot iteration=0 path_id=pt_vacancy image_index=0 selection_reason=reference calculator_name=quantum_espresso dft_settings_hash=7257cad63a27df6fd1c244e8d9ea328d6995aefe0c6b241a4907ccbc701e8c4c structure_hash=82bbc672546257b3f7b35fbb0772ca2ca721f39b7191caf2a391c4d2d96cc305 pbc="T T T"
Pt      -0.00000000       1.90922268       1.90922268      -0.00000000       0.05607576       0.05607576
Pt       1.90922268      -0.00000000       1.90922268       0.05607576      -0.00000000       0.05607576
Pt       1.90922268       1.90922268      -0.00000000       0.05607576       0.05607576       0.00000000
Pt      -0.00000000      -0.00000000       3.92400000       0.00000000       0.00000000       0.00000000
Pt      -0.00000000       1.90922268       5.93877732       0.00000000       0.05607576      -0.05607576
Pt       1.90922268      -0.00000000       5.93877732       0.05607576       0.00000000      -0.05607576
Pt       1.95434023       1.95434023       3.92400000      -0.10617319      -0.10617319       0.00000000
Pt      -0.00000000       3.92400000      -0.00000000       0.00000000       0.00000000       0.00000000
Pt      -0.00000000       5.93877732       1.90922268      -0.00000000      -0.05607576       0.05607576
Pt       1.95434023       3.92400000       1.95434023      -0.10617319      -0.00000000      -0.10617319
Pt       1.90922268       5.93877732      -0.00000000       0.05607576      -0.05607576      -0.00000000
Pt      -0.00000000       3.92400000       3.92400000       0.00000000       0.00000000       0.00000000
Pt      -0.00000000       5.93877732       5.93877732       0.00000000      -0.05607576      -0.05607576
Pt       1.95434023       3.92400000       5.89365977      -0.10617319       0.00000000       0.10617319
Pt       1.95434023       5.89365977       3.92400000      -0.10617319       0.10617319       0.00000000
Pt       3.92400000      -0.00000000      -0.00000000       0.00000000       0.00000000       0.00000000
Pt       3.92400000       1.95434023       1.95434023       0.00000000      -0.10617319      -0.10617319
Pt       5.93877732      -0.00000000       1.90922268      -0.05607576      -0.00000000       0.05607576
Pt       5.93877732       1.90922268      -0.00000000      -0.05607576       0.05607576      -0.00000000
Pt       3.92400000      -0.00000000       3.92400000       0.00000000       0.00000000       0.00000000
Pt       3.92400000       1.95434023       5.89365977       0.00000000      -0.10617319       0.10617319
Pt       5.93877732      -0.00000000       5.93877732      -0.05607576       0.00000000      -0.05607576
Pt       5.89365977       1.95434023       3.92400000       0.10617319      -0.10617319       0.00000000
Pt       3.92400000       3.92400000      -0.00000000       0.00000000       0.00000000       0.00000000
Pt       3.92400000       5.89365977       1.95434023      -0.00000000       0.10617319      -0.10617319
Pt       5.89365977       3.92400000       1.95434023       0.10617319       0.00000000      -0.10617319
Pt       5.93877732       5.93877732      -0.00000000      -0.05607576      -0.05607576      -0.00000000
Pt       3.92400000       3.92400000       3.92400000       0.00000000       0.00000000       0.00000000
Pt       3.92400000       5.89365977       5.89365977       0.00000000       0.10617319       0.10617319
Pt       5.89365977       3.92400000       5.89365977       0.10617319       0.00000000       0.10617319
Pt       5.89365977       5.89365977       3.92400000       0.10617319       0.10617319       0.00000000
31
Lattice="7.848 0.0 0.0 0.0 7.848 0.0 0.0 0.0 7.848" Properties=species:S:1:pos:R:3:REF_forces:R:3 REF_energy=-88863.65470545217 config_type=Default campaign_id=vacancy_migration_single_shot iteration=0 path_id=pt_vacancy image_index=2 selection_reason=peak_plus_neighbors calculator_name=quantum_espresso dft_settings_hash=7257cad63a27df6fd1c244e8d9ea328d6995aefe0c6b241a4907ccbc701e8c4c structure_hash=b3daa2288b16c60e10485e683a1e46fbf0a58bd9138b03068bc497d5492e1054 pbc="T T T"
Pt       0.00002216       1.35748423       1.35748423       0.00000000       0.74382246       0.74382246
Pt       2.05776057      -0.05927134       1.96505650      -0.03613968      -0.08856088       0.16966890
Pt       2.05776057       1.96505650      -0.05927133      -0.03613968       0.16966890      -0.08856088
Pt      -0.00000664       0.02186484       3.87446620       0.00000000       0.01580226       0.07596299
Pt      -0.00001024       1.90962230       5.94896081       0.00000000      -0.12627485      -0.16754182
Pt       1.89265803       0.00351840       5.92828157       0.21126780      -0.03027037      -0.13857758
Pt       1.89336964       1.94147236       3.86507051       0.04617290       0.01027747       0.10639868
Pt      -0.00000665       3.87446620       0.02186484       0.00000000       0.07596299       0.01580226
Pt      -0.00001024       5.94896081       1.90962230       0.00000000      -0.16754182      -0.12627485
Pt       1.89336964       3.86507051       1.94147236       0.04617290       0.10639868       0.01027747
Pt       1.89265802       5.92828157       0.00351840       0.21126780      -0.13857758      -0.03027037
Pt       0.00000295       3.86608660       3.86608660       0.00000000      -0.08482198      -0.08482198
Pt      -0.00001090       5.94507557       5.94507557       0.00000000       0.03071440       0.03071440
Pt       1.92993782       3.93253707       5.86591547      -0.26729600       0.01930718      -0.04591733
Pt       1.92993782       5.86591547       3.93253707      -0.26729600      -0.04591733       0.01930718
Pt       3.92397756      -0.03211394      -0.03211394       0.00000000      -0.07879917      -0.07879917
Pt       3.92396317       1.97446999       1.97446999       0.00000000      -0.11049110      -0.11049110
Pt       5.79026320      -0.05925956       1.96502483       0.03613968      -0.08856088       0.16966890
Pt       5.79026320       1.96502483      -0.05925956       0.03613968       0.16966890      -0.08856088
Pt       3.92401031      -0.01345961       3.97302846       0.00000000      -0.02343946      -0.22428170
Pt       3.92401385       1.97191034       5.81358270       0.00000000      -0.04109960       0.04303590
Pt       5.95533246       0.00349026       5.92828405      -0.21126780      -0.03027037      -0.13857758
Pt       5.95462773       1.94149790       3.86507808      -0.04617290       0.01027747       0.10639868
Pt       3.92401031       3.97302846      -0.01345961       0.00000000      -0.22428170      -0.02343946
Pt       3.92401385       5.81358270       1.97191034       0.00000000       0.04303590      -0.04109960
Pt       5.95462773       3.86507808       1.94149790      -0.04617290       0.10639868       0.01027747
Pt       5.95533245       5.92828405       0.00349025      -0.21126780      -0.13857758      -0.03027037
Pt       3.92396521       3.91291290       3.91291290       0.00000000       0.00321259       0.00321259
Pt       3.92396749       5.88651076       5.88651076       0.00000000      -0.06045306      -0.06045306
Pt       5.91804537       3.93253688       5.86590611       0.26729600       0.01930718      -0.04591733
Pt       5.91804537       5.86590610       3.93253688       0.26729600      -0.04591733       0.01930718
31
Lattice="7.848 0.0 0.0 0.0 7.848 0.0 0.0 0.0 7.848" Properties=species:S:1:pos:R:3:REF_forces:R:3 REF_energy=-88863.41277924248 config_type=Default campaign_id=vacancy_migration_single_shot iteration=0 path_id=pt_vacancy image_index=3 selection_reason=peak_plus_neighbors calculator_name=quantum_espresso dft_settings_hash=7257cad63a27df6fd1c244e8d9ea328d6995aefe0c6b241a4907ccbc701e8c4c structure_hash=1b692bff5dc90fba9d7ab2a40dc9f6f7bd503b7c7b718058cdc0b8458ae1fea7 pbc="T T T"
Pt       0.00002783       0.98100031       0.98100031      -0.00013550       0.00000000       0.00000000
Pt       2.09384182      -0.04375279       2.00575274       0.02306254      -0.20708410       0.20708410
Pt       2.09384181       2.00575274      -0.04375279       0.02306254       0.20708410      -0.20708410
Pt      -0.00001739       0.04866885       3.85009629      -0.00007868       0.10036481       0.02553234
Pt      -0.00001738       1.91333113       5.95990372      -0.00007868      -0.10036481      -0.02553234
Pt       1.88845149       0.01152343       5.93622789       0.12248890      -0.06765524      -0.11064408
Pt       1.88845149       1.95047655       3.87377209       0.12248890       0.06765524       0.11064408
Pt      -0.00001739       3.85009629       0.04866885      -0.00007868       0.02553234       0.10036481
Pt      -0.00001739       5.95990372       1.91333113      -0.00007868      -0.02553234      -0.10036481
Pt       1.88845149       3.87377209       1.95047655       0.12248890       0.11064408       0.06765524
Pt       1.88845149       5.93622790       0.01152344       0.12248890      -0.11064408      -0.06765524
Pt      -0.00000146       3.86307247       3.86307247      -0.00015915      -0.06252820      -0.06252820
Pt      -0.00000145       5.94692753       5.94692753      -0.00015915       0.06252820       0.06252820
Pt       1.92285574       3.93976420       5.87023580      -0.27855306       0.05622514      -0.05622514
Pt       1.92285574       5.87023580       3.93976420      -0.27855306      -0.05622514       0.05622514
Pt       3.92400114      -0.02862275      -0.02862275      -0.00005785      -0.00256262      -0.00256262
Pt       3.92400115       1.99062274       1.99062274      -0.00005785       0.00256262       0.00256262
Pt       5.75416933      -0.04371919       2.00571915      -0.02292807      -0.20732193       0.20732193
Pt       5.75416933       2.00571915      -0.04371919      -0.02292807       0.20732193      -0.20732193
Pt       3.92401840      -0.01467605       3.99619852      -0.00006428      -0.03128750      -0.16701938
Pt       3.92401839       1.97667606       5.81380146      -0.00006428       0.03128750       0.16701938
Pt       5.95953072       0.01151274       5.93623079      -0.12239608      -0.06763750      -0.11068162
Pt       5.95953074       1.95048725       3.87376918      -0.12239608       0.06763750       0.11068162
Pt       3.92401839       3.99619852      -0.01467605      -0.00006428      -0.16701938      -0.03128750
Pt       3.92401838       5.81380146       1.97667606      -0.00006428       0.16701938       0.03128750
Pt       5.95953073       3.87376919       1.95048725      -0.12239608       0.11068162       0.06763750
Pt       5.95953072       5.93623078       0.01151274      -0.12239608      -0.11068162      -0.06763750
Pt       3.92397701       3.91941078       3.91941078       0.00012958       0.01223125       0.01223125
Pt       3.92397702       5.89058921       5.89058921       0.00012958      -0.01223125      -0.01223125
Pt       5.92511960       3.93978373       5.87021626       0.27867390       0.05592612      -0.05592612
Pt       5.92511960       5.87021626       3.93978373       0.27867390      -0.05592612       0.05592612
31
Lattice="7.848 0.0 0.0 0.0 7.848 0.0 0.0 0.0 7.848" Properties=species:S:1:pos:R:3:REF_forces:R:3 REF_energy=-88863.65464096118 config_type=Default campaign_id=vacancy_migration_single_shot iteration=0 path_id=pt_vacancy image_index=4 selection_reason=peak_plus_neighbors calculator_name=quantum_espresso dft_settings_hash=7257cad63a27df6fd1c244e8d9ea328d6995aefe0c6b241a4907ccbc701e8c4c structure_hash=bb8336a3c42fae4dcd5065dde612a6a65a90fcb3c053c3898f5ca58a5e08664f pbc="T T T"
Pt       0.00002231       0.60455924       0.60455924       0.00000000      -0.74371164      -0.74371164
Pt       2.05776778      -0.00306210       2.02127169      -0.03611757      -0.16970386       0.08855471
Pt       2.05776778       2.02127169      -0.00306212      -0.03611757       0.08855471      -0.16970386
Pt      -0.00001010       0.05237759       3.86103752       0.00000000       0.12628153       0.16752048
Pt      -0.00000649       1.94013162       5.93553703       0.00000000      -0.01582000      -0.07595476
Pt       1.89336839       0.02052690       5.94492938       0.04618113      -0.01029393      -0.10639971
Pt       1.89265747       1.95848082       3.88171782       0.21126369       0.03027191       0.13857680
Pt      -0.00001012       3.86103752       0.05237759       0.00000000       0.16752048       0.12628153
Pt      -0.00000655       5.93553703       1.94013162       0.00000000      -0.07595476      -0.01582000
Pt       1.89265748       3.88171781       1.95848082       0.21126369       0.13857680       0.03027191
Pt       1.89336839       5.94492939       0.02052687       0.04618113      -0.10639971      -0.01029393
Pt      -0.00001077       3.86492393       3.86492393       0.00000000      -0.03071388      -0.03071388
Pt       0.00000310       5.94391420       5.94391420       0.00000000       0.08483226       0.08483226
Pt       1.92993682       3.94408451       5.87746199      -0.26729446       0.04592633      -0.01930847
Pt       1.92993682       5.87746200       3.94408453      -0.26729446      -0.01930847       0.04592633
Pt       3.92396326      -0.01247194      -0.01247194       0.00000000       0.11048442       0.11048442
Pt       3.92397771       1.99411412       1.99411412       0.00000000       0.07879737       0.07879737
Pt       5.79025622      -0.00303043       2.02125990       0.03611757      -0.16970386       0.08855471
Pt       5.79025622       2.02125990      -0.00303041       0.03611757       0.08855471      -0.16970386
Pt       3.92401395      -0.00991100       3.99641857       0.00000000       0.04109651      -0.04302998
Pt       3.92401041       1.97545978       5.83696827       0.00000000       0.02344280       0.22429250
Pt       5.95462922       0.02050137       5.94492181      -0.04618113      -0.01029393      -0.10639971
Pt       5.95533323       1.95850899       3.88171531      -0.21126369       0.03027191       0.13857680
Pt       3.92401397       3.99641857      -0.00991100       0.00000000      -0.04302998       0.04109651
Pt       3.92401045       5.83696827       1.97545978       0.00000000       0.22429250       0.02344280
Pt       5.95533324       3.88171532       1.95850899      -0.21126369       0.13857680       0.03027191
Pt       5.95462923       5.94492180       0.02050139      -0.04618113      -0.10639971      -0.01029393
Pt       3.92396762       3.92348892       3.92348892       0.00000000       0.06044638       0.06044638
Pt       3.92396532       5.89708654       5.89708654       0.00000000      -0.00321182      -0.00321182
Pt       5.91804660       3.94409386       5.87746213       0.26729446       0.04592633      -0.01930847
Pt       5.91804660       5.87746212       3.94409384       0.26729446      -0.01930847       0.04592633
