63
Lattice="10.862 0.0 0.0 0.0 10.862 0.0 0.0 0.0 10.862" Properties=species:S:1:pos:R:3:REF_forces:R:3 REF_energy=-9785.009778804671 config_type=Default campaign_id=vacancy_migration_single_shot iteration=0 path_id=si_vacancy image_index=0 selection_reason=reference calculator_name=quantum_espresso dft_settings_hash=6257dd499dc0ca8a79b830a94ab433a76fc367a4d4ec13e353d93f24327b1245 structure_hash=e8dcd6c3d4b550244d7cd208aa87054cad4f1438b6d712e489c93cd748bb0abc pbc="T T T"
Si       1.20214752       1.20214752       1.20214752       0.08207296       0.08207296       0.08207296
Si       0.02280372       2.66897892       2.66897892      -0.18059454      -0.10474032      -0.10474032
Si       1.35174541       4.05599474       4.05599474       0.16028309       0.04228359       0.04228359
Si       2.66897892       0.02280372       2.66897892      -0.10474032      -0.18059454      -0.10474032
Si       4.05599474       1.35174541       4.05599474       0.04228359       0.16028309       0.04228359
Si       2.66897892       2.66897892       0.02280372      -0.10474032      -0.10474032      -0.18059454
Si       4.05599474       4.05599474       1.35174541       0.04228359       0.04228359       0.16028309
Si      -0.00000000      -0.00000000       5.43100000       0.00000000       0.00000000       0.00000000
Si       1.35363194       1.35363194       6.80382698      -0.01213586      -0.01213586       0.00743614
Si      -0.02280372       2.66897892       8.19302108       0.18059454      -0.10474032       0.10474032
Si       1.35363194       4.05817302       9.50836806      -0.01213586      -0.00743614       0.01213586
Si       2.66897892      -0.02280372       8.19302108      -0.10474032       0.18059454       0.10474032
Si       4.05817302       1.35363194       9.50836806      -0.00743614      -0.01213586       0.01213586
Si       2.71026918       2.71026918       5.43550683      -0.01811342      -0.01811342      -0.07351170
Si       4.07260763       4.07260763       6.78939237       0.00863865       0.00863865      -0.00863865
Si       0.00000000       5.43100000      -0.00000000       0.00000000       0.00000000       0.00000000
Si       1.35363194       6.80382698       1.35363194      -0.01213586       0.00743614      -0.01213586
Si      -0.02280372       8.19302108       2.66897892       0.18059454       0.10474032      -0.10474032
Si       1.35363194       9.50836806       4.05817302      -0.01213586       0.01213586      -0.00743614
Si       2.71026918       5.43550683       2.71026918      -0.01811342      -0.07351170      -0.01811342
Si       4.07260763       6.78939237       4.07260763       0.00863865      -0.00863865       0.00863865
Si       2.66897892       8.19302108      -0.02280372      -0.10474032       0.10474032       0.18059454
Si       4.05817302       9.50836806       1.35363194      -0.00743614       0.01213586      -0.01213586
Si      -0.00000000       5.43100000       5.43100000       0.00000000       0.00000000       0.00000000
Si       1.35174541       6.80600526       6.80600526       0.16028309      -0.04228359      -0.04228359
Si       0.02280372       8.19302108       8.19302108      -0.18059454       0.10474032       0.10474032
Si       1.20214752       9.65985248       9.65985248       0.08207296      -0.08207296      -0.08207296
Si       2.71026918       5.42649317       8.15173082      -0.01811342       0.07351170       0.01811342
Si       4.05599474       6.80600526       9.51025459       0.04228359      -0.04228359      -0.16028309
Si       2.71026918       8.15173082       5.42649317      -0.01811342       0.01811342       0.07351170
Si       4.05599474       9.51025459       6.80600526       0.04228359      -0.16028309      -0.04228359
Si       5.43100000      -0.00000000      -0.00000000       0.00000000       0.00000000       0.00000000
Si       6.80382698       1.35363194       1.35363194       0.00743614      -0.01213586      -0.01213586
Si       5.43550683       2.71026918       2.71026918      -0.07351170      -0.01811342      -0.01811342
Si       6.78939237       4.07260763       4.07260763      -0.00863865       0.00863865       0.00863865
Si       8.19302108      -0.02280372       2.66897892       0.10474032       0.18059454      -0.10474032
Si       9.50836806       1.35363194       4.05817302       0.01213586      -0.01213586      -0.00743614
Si       8.19302108       2.66897892      -0.02280372       0.10474032      -0.10474032       0.18059454
Si       9.50836806       4.05817302       1.35363194       0.01213586      -0.00743614      -0.01213586
Si       5.43100000      -0.00000000       5.43100000       0.00000000       0.00000000       0.00000000
Si       6.80600526       1.35174541       6.80600526      -0.04228359       0.16028309      -0.04228359
Si       5.42649317       2.71026918       8.15173082       0.07351170      -0.01811342       0.01811342
Si       6.80600526       4.05599474       9.51025459      -0.04228359       0.04228359      -0.16028309
Si       8.19302108       0.02280372       8.19302108       0.10474032      -0.18059454       0.10474032
Si       9.65985248       1.20214752       9.65985248      -0.08207296       0.08207296      -0.08207296
Si       8.15173082       2.71026918       5.42649317       0.01811342      -0.01811342       0.07351170
Si       9.51025459       4.05599474       6.80600526      -0.16028309       0.04228359      -0.04228359
Si       5.43100000       5.43100000      -0.00000000       0.00000000       0.00000000       0.00000000
Si       6.80600526       6.80600526       1.35174541      -0.04228359      -0.04228359       0.16028309
Si       5.42649317       8.15173082       2.71026918       0.07351170       0.01811342      -0.01811342
Si       6.80600526       9.51025459       4.05599474      -0.04228359      -0.16028309       0.04228359
Si       8.15173082       5.42649317       2.71026918       0.01811342       0.07351170      -0.01811342
Si       9.51025459       6.80600526       4.05599474      -0.16028309      -0.04228359       0.04228359
Si       8.19302108       8.19302108       0.02280372       0.10474032       0.10474032      -0.18059454
Si       9.65985248       9.65985248       1.20214752      -0.08207296      -0.08207296       0.08207296
Si       5.43100000       5.43100000       5.43100000       0.00000000       0.00000000       0.00000000
Si       6.78939237       6.78939237       6.78939237      -0.00863865      -0.00863865      -0.00863865
Si       5.43550683       8.15173082       8.15173082      -0.07351170       0.01811342       0.01811342
Si       6.80382698       9.50836806       9.50836806       0.00743614       0.01213586       0.01213586
Si       8.15173082       5.43550683       8.15173082       0.01811342      -0.07351170       0.01811342
Si       9.50836806       6.80382698       9.50836806       0.01213586       0.00743614       0.01213586
Si       8.15173082       8.15173082       5.43550683       0.01811342       0.01811342      -0.07351170
Si       9.50836806       9.50836806       6.80382698       0.01213586       0.01213586       0.00743614
63
Lattice="10.862 0.0 0.0 0.0 10.862 0.0 0.0 0.0 10.862" Properties=species:S:1:pos:R:3:REF_forces:R:3 REF_energy=-9784.896271550982 config_type=Default campaign_id=vacancy_migration_single_shot iteration=0 path_id=si_vacancy image_index=2 selection_reason=peak_plus_neighbors calculator_name=quantum_espresso dft_settings_hash=6257dd499dc0ca8a79b830a94ab433a76fc367a4d4ec13e353d93f24327b1245 structure_hash=569f5095261dc7c0d6f518548abca87c2f55ce1c8686a221524aef580f0dfbcc pbc="T T T"
Si       0.86596763       0.86596763       0.86596763       0.04838868       0.04838868       0.04838868
Si       0.03467620       2.53671161       2.53671161      -0.17556289       0.10036558       0.10036558
Si       1.32336306       3.98873435       3.98873435       0.16262176      -0.00005734      -0.00005734
Si       2.53671161       0.03467620       2.53671161       0.10036558      -0.17556289       0.10036558
Si       3.98873435       1.32336306       3.98873435      -0.00005734       0.16262176      -0.00005734
Si       2.53671161       2.53671161       0.03467620       0.10036558       0.10036558      -0.17556289
Si       3.98873435       3.98873435       1.32336306      -0.00005734      -0.00005734       0.16262176
Si       0.00130523       0.00130523       5.42384941      -0.01582771      -0.01582771       0.02010860
Si       1.35660871       1.35660871       6.79372451      -0.01034946      -0.01034946      -0.00361497
Si      -0.00985199       2.68978009       8.17721466       0.09206041      -0.06539112       0.04181591
Si       1.35725777       4.04224732       9.52020519      -0.03375370       0.04455593      -0.04164724
Si       2.68978009      -0.00985199       8.17721466      -0.06539112       0.09206041       0.04181591
Si       4.04224732       1.35725777       9.52020519       0.04455593      -0.03375370      -0.04164724
Si       2.70410773       2.70410773       5.40666855      -0.00938607      -0.00938607      -0.04277956
Si       4.06616638       4.06616638       6.78508547      -0.02106428      -0.02106428      -0.06658283
Si       0.00130523       5.42384941       0.00130523      -0.01582771       0.02010860      -0.01582771
Si       1.35660871       6.79372451       1.35660871      -0.01034946      -0.00361497      -0.01034946
Si      -0.00985199       8.17721466       2.68978009       0.09206041       0.04181591      -0.06539112
Si       1.35725777       9.52020519       4.04224732      -0.03375370      -0.04164724       0.04455593
Si       2.70410773       5.40666855       2.70410773      -0.00938607      -0.04277956      -0.00938607
Si       4.06616638       6.78508547       4.06616638      -0.02106428      -0.06658283      -0.02106428
Si       2.68978009       8.17721466      -0.00985199      -0.06539112       0.04181591       0.09206041
Si       4.04224732       9.52020519       1.35725777       0.04455593      -0.04164724      -0.03375370
Si       0.01466371       5.40682587       5.40682587      -0.07650960      -0.02924424      -0.02924424
Si       1.34592551       6.80535769       6.80535769       0.16843734      -0.02630830      -0.02630830
Si       0.03269025       8.21586036       8.21586036      -0.18518833       0.10964701       0.10964701
Si       1.27724887       9.69078599       9.69078599       0.14196423      -0.10213656      -0.10213656
Si       2.70668858       5.42207388       8.15785826       0.05995581       0.05145934      -0.02272418
Si       4.06189056       6.79625360       9.51326840       0.04082115      -0.06061967      -0.17071971
Si       2.70668858       8.15785826       5.42207388       0.05995581      -0.02272418       0.05145934
Si       4.06189056       9.51326840       6.79625360       0.04082115      -0.17071971      -0.06061967
Si       5.42384941       0.00130523       0.00130523       0.02010860      -0.01582771      -0.01582771
Si       6.79372451       1.35660871       1.35660871      -0.00361497      -0.01034946      -0.01034946
Si       5.40666855       2.70410773       2.70410773      -0.04277956      -0.00938607      -0.00938607
Si       6.78508547       4.06616638       4.06616638      -0.06658283      -0.02106428      -0.02106428
Si       8.17721466      -0.00985199       2.68978009       0.04181591       0.09206041      -0.06539112
Si       9.52020519       1.35725777       4.04224732      -0.04164724      -0.03375370       0.04455593
Si       8.17721466       2.68978009      -0.00985199       0.04181591      -0.06539112       0.09206041
Si       9.52020519       4.04224732       1.35725777      -0.04164724       0.04455593      -0.03375370
Si       5.40682587       0.01466371       5.40682587      -0.02924424      -0.07650960      -0.02924424
Si       6.80535769       1.34592551       6.80535769      -0.02630830       0.16843734      -0.02630830
Si       5.42207388       2.70668858       8.15785826       0.05145934       0.05995581      -0.02272418
Si       6.79625360       4.06189056       9.51326840      -0.06061967       0.04082115      -0.17071971
Si       8.21586036       0.03269025       8.21586036       0.10964701      -0.18518833       0.10964701
Si       9.69078599       1.27724887       9.69078599      -0.10213656       0.14196423      -0.10213656
Si       8.15785826       2.70668858       5.42207388      -0.02272418       0.05995581       0.05145934
Si       9.51326840       4.06189056       6.79625360      -0.17071971       0.04082115      -0.06061967
Si       5.40682587       5.40682587       0.01466371      -0.02924424      -0.02924424      -0.07650960
Si       6.80535769       6.80535769       1.34592551      -0.02630830      -0.02630830       0.16843734
Si       5.42207388       8.15785826       2.70668858       0.05145934      -0.02272418       0.05995581
Si       6.79625360       9.51326840       4.06189056      -0.06061967      -0.17071971       0.04082115
Si       8.15785826       5.42207388       2.70668858      -0.02272418       0.05145934       0.05995581
Si       9.51326840       6.79625360       4.06189056      -0.17071971      -0.06061967       0.04082115
Si       8.21586036       8.21586036       0.03269025       0.10964701       0.10964701      -0.18518833
Si       9.69078599       9.69078599       1.27724887      -0.10213656      -0.10213656       0.14196423
Si       5.42975373       5.42975373       5.42975373       0.01082589       0.01082589       0.01082589
Si       6.79064208       6.79064208       6.79064208      -0.02125300      -0.02125300      -0.02125300
Si       5.43337388       8.15310373       8.15310373       0.00792697       0.02396140       0.02396140
Si       6.80852177       9.51326510       9.51326510       0.03672024       0.03183591       0.03183591
Si       8.15310373       5.43337388       8.15310373       0.02396140       0.00792697       0.02396140
Si       9.51326510       6.80852177       9.51326510       0.03183591       0.03672024       0.03183591
Si       8.15310373       8.15310373       5.43337388       0.02396140       0.02396140       0.00792697
Si       9.51326510       9.51326510       6.80852177       0.03183591       0.03183591       0.03672024
63
Lattice="10.862 0.0 0.0 0.0 10.862 0.0 0.0 0.0 10.862" Properties=species:S:1:pos:R:3:REF_forces:R:3 REF_energy=-9784.861967928084 config_type=Default campaign_id=vacancy_migration_single_shot iteration=0 path_id=si_vacancy image_index=3 selection_reason=peak_plus_neighbors calculator_name=quantum_espresso dft_settings_hash=6257dd499dc0ca8a79b830a94ab433a76fc367a4d4ec13e353d93f24327b1245 structure_hash=013a3c8a42013773075346311efb383f29319204d57f14587e82cd9916323fbe pbc="T T T"
Si       0.67887500       0.67887500       0.67887500       0.00005579       0.00005579       0.00005579
Si       0.05245777       2.51149536       2.51149536      -0.12718399       0.11755752       0.11755752
Si       1.32094248       3.98663855       3.98663855       0.15849334      -0.06598145      -0.06598145
Si       2.51149536       0.05245777       2.51149536       0.11755752      -0.12718399       0.11755752
Si       3.98663855       1.32094248       3.98663855      -0.06598145       0.15849334      -0.06598145
Si       2.51149536       2.51149536       0.05245777       0.11755752       0.11755752      -0.12718399
Si       3.98663855       3.98663855       1.32094248      -0.06598145      -0.06598145       0.15849334
Si       0.00137216       0.00137216       5.42451692      -0.00502265      -0.00502265       0.01750716
Si       1.35637784       1.35637784       6.79523308       0.00467684       0.00467684      -0.01733926
Si      -0.00448965       2.69371148       8.17973918       0.07080792       0.01378343      -0.02130210
Si       1.36223965       4.04001082       9.52603852      -0.07119385       0.02126174      -0.01365461
Si       2.69371148      -0.00448965       8.17973918       0.01378343       0.07080792      -0.02130210
Si       4.04001082       1.36223965       9.52603852       0.02126174      -0.07119385      -0.01365461
Si       2.70409485       2.70409485       5.40605149      -0.02007183      -0.02007183      -0.04168478
Si       4.06592538       4.06592538       6.78478259      -0.03322534      -0.03322534      -0.04583094
Si       0.00137216       5.42451692       0.00137216      -0.00502265       0.01750716      -0.00502265
Si       1.35637784       6.79523308       1.35637784       0.00467684      -0.01733926       0.00467684
Si      -0.00448965       8.17973918       2.69371148       0.07080792      -0.02130210       0.01378343
Si       1.36223965       9.52603852       4.04001082      -0.07119385      -0.01365461       0.02126174
Si       2.70409485       5.40605149       2.70409485      -0.02007183      -0.04168478      -0.02007183
Si       4.06592538       6.78478259       4.06592538      -0.03322534      -0.04583094      -0.03322534
Si       2.69371148       8.17973918      -0.00448965       0.01378343      -0.02130210       0.07080792
Si       4.04001082       9.52603852       1.36223965       0.02126174      -0.01365461      -0.07119385
Si       0.01453875       5.40837842       5.40837842      -0.11350521      -0.00937527      -0.00937527
Si       1.34321125       6.81137158       6.81137158       0.11338256       0.00931845       0.00931845
Si       0.03680752       8.23311145       8.23311145      -0.15834576       0.06610435       0.06610435
Si       1.30529223       9.70825464       9.70825464       0.12710840      -0.11762951      -0.11762951
Si       2.70648703       5.42226904       8.15811668       0.12300646       0.05957246      -0.03044880
Si       4.06163332       6.79748096       9.51326297       0.03060718      -0.05940560      -0.12302574
Si       2.70648703       8.15811668       5.42226904       0.12300646      -0.03044880       0.05957246
Si       4.06163332       9.51326297       6.79748096       0.03060718      -0.12302574      -0.05940560
Si       5.42451692       0.00137216       0.00137216       0.01750716      -0.00502265      -0.00502265
Si       6.79523308       1.35637784       1.35637784      -0.01733926       0.00467684       0.00467684
Si       5.40605149       2.70409485       2.70409485      -0.04168478      -0.02007183      -0.02007183
Si       6.78478259       4.06592538       4.06592538      -0.04583094      -0.03322534      -0.03322534
Si       8.17973918      -0.00448965       2.69371148      -0.02130210       0.07080792       0.01378343
Si       9.52603852       1.36223965       4.04001082      -0.01365461      -0.07119385       0.02126174
Si       8.17973918       2.69371148      -0.00448965      -0.02130210       0.01378343       0.07080792
Si       9.52603852       4.04001082       1.36223965      -0.01365461       0.02126174      -0.07119385
Si       5.40837842       0.01453875       5.40837842      -0.00937527      -0.11350521      -0.00937527
Si       6.81137158       1.34321125       6.81137158       0.00931845       0.11338256       0.00931845
Si       5.42226904       2.70648703       8.15811668       0.05957246       0.12300646      -0.03044880
Si       6.79748096       4.06163332       9.51326297      -0.05940560       0.03060718      -0.12302574
Si       8.23311145       0.03680752       8.23311145       0.06610435      -0.15834576       0.06610435
Si       9.70825464       1.30529223       9.70825464      -0.11762951       0.12710840      -0.11762951
Si       8.15811668       2.70648703       5.42226904      -0.03044880       0.12300646       0.05957246
Si       9.51326297       4.06163332       6.79748096      -0.12302574       0.03060718      -0.05940560
Si       5.40837842       5.40837842       0.01453875      -0.00937527      -0.00937527      -0.11350521
Si       6.81137158       6.81137158       1.34321125       0.00931845       0.00931845       0.11338256
Si       5.42226904       8.15811668       2.70648703       0.05957246      -0.03044880       0.12300646
Si       6.79748096       9.51326297       4.06163332      -0.05940560      -0.12302574       0.03060718
Si       8.15811668       5.42226904       2.70648703      -0.03044880       0.05957246       0.12300646
Si       9.51326297       6.79748096       4.06163332      -0.12302574      -0.05940560       0.03060718
Si       8.23311145       8.23311145       0.03680752       0.06610435       0.06610435      -0.15834576
Si       9.70825464       9.70825464       1.30529223      -0.11762951      -0.11762951       0.12710840
Si       5.42940001       5.42940001       5.42940001       0.02031403       0.02031403       0.02031403
Si       6.79034999       6.79034999       6.79034999      -0.02014665      -0.02014665      -0.02014665
Si       5.43496741       8.15382462       8.15382462       0.04594150       0.03334978       0.03334978
Si       6.81369851       9.51565515       9.51565515       0.04163927       0.02008829       0.02008829
Si       8.15382462       5.43496741       8.15382462       0.03334978       0.04594150       0.03334978
Si       9.51565515       6.81369851       9.51565515       0.02008829       0.04163927       0.02008829
Si       8.15382462       8.15382462       5.43496741       0.03334978       0.03334978       0.04594150
Si       9.51565515       9.51565515       6.81369851       0.02008829       0.02008829       0.04163927
63
Lattice="10.862 0.0 0.0 0.0 10.862 0.0 0.0 0.0 10.862" Properties=species:S:1:pos:R:3:REF_forces:R:3 REF_energy=-9784.896260394315 config_type=Default campaign_id=vacancy_migration_single_shot iteration=0 path_id=si_vacancy image_index=4 selection_reason=peak_plus_neighbors calculator_name=quantum_espresso dft_settings_hash=6257dd499dc0ca8a79b830a94ab433a76fc367a4d4ec13e353d93f24327b1245 structure_hash=0b767e113910d5ec310d58a5df1716527cd80e46227166e7a671f3457d4e3aed pbc="T T T"
Si       0.49178237       0.49178237       0.49178237      -0.04858408      -0.04858408      -0.04858408
Si       0.08050113       2.52896401       2.52896401      -0.14230310       0.10232553       0.10232553
Si       1.32505975       4.00388964       4.00388964       0.18535623      -0.10979048      -0.10979048
Si       2.52896401       0.08050113       2.52896401       0.10232553      -0.14230310       0.10232553
Si       4.00388964       1.32505975       4.00388964      -0.10979048       0.18535623      -0.10979048
Si       2.52896401       2.52896401       0.08050113       0.10232553       0.10232553      -0.14230310
Si       4.00388964       4.00388964       1.32505975      -0.10979048      -0.10979048       0.18535623
Si       0.00114129       0.00114129       5.42602549       0.00998102       0.00998102       0.00382117
Si       1.35644477       1.35644477       6.79590059       0.01550427       0.01550427      -0.01997927
Si       0.00049223       2.69954481       8.17750268       0.03338192       0.04178608      -0.04462792
Si       1.36760199       4.04253534       9.52996991      -0.09241162      -0.04173595       0.06546569
Si       2.69954481       0.00049223       8.17750268       0.04178608       0.03338192      -0.04462792
Si       4.04253534       1.36760199       9.52996991      -0.04173595      -0.09241162       0.06546569
Si       2.70648490       2.70648490       5.41122823      -0.03182254      -0.03182254      -0.03664645
Si       4.06664627       4.06664627       6.78637612      -0.02385701      -0.02385701      -0.00780613
Si       0.00114129       5.42602549       0.00114129       0.00998102       0.00382117       0.00998102
Si       1.35644477       6.79590059       1.35644477       0.01550427      -0.01997927       0.01550427
Si       0.00049223       8.17750268       2.69954481       0.03338192      -0.04462792       0.04178608
Si       1.36760199       9.52996991       4.04253534      -0.09241162       0.06546569      -0.04173595
Si       2.70648490       5.41122823       2.70648490      -0.03182254      -0.03664645      -0.03182254
Si       4.06664627       6.78637612       4.06664627      -0.02385701      -0.00780613      -0.02385701
Si       2.69954481       8.17750268       0.00049223       0.04178608      -0.04462792       0.03338192
Si       4.04253534       9.52996991       1.36760199      -0.04173595       0.06546569      -0.09241162
Si       0.01182449       5.41439231       5.41439231      -0.16858852       0.02637926       0.02637926
Si       1.34308629       6.81292413       6.81292413       0.07641499       0.02912803       0.02912803
Si       0.03438694       8.23101565       8.23101565      -0.16246492       0.00010104       0.00010104
Si       1.32307380       9.68303839       9.68303839       0.17573079      -0.10031956      -0.10031956
Si       2.70648160       5.42349640       8.15785944       0.17069014       0.06080968      -0.04069851
Si       4.06189174       6.79767612       9.51306142       0.02289207      -0.05132436      -0.05997818
Si       2.70648160       8.15785944       5.42349640       0.17069014      -0.04069851       0.06080968
Si       4.06189174       9.51306142       6.79767612       0.02289207      -0.05997818      -0.05132436
Si       5.42602549       0.00114129       0.00114129       0.00382117       0.00998102       0.00998102
Si       6.79590059       1.35644477       1.35644477      -0.01997927       0.01550427       0.01550427
Si       5.41122823       2.70648490       2.70648490      -0.03664645      -0.03182254      -0.03182254
Si       6.78637612       4.06664627       4.06664627      -0.00780613      -0.02385701      -0.02385701
Si       8.17750268       0.00049223       2.69954481      -0.04462792       0.03338192       0.04178608
Si       9.52996991       1.36760199       4.04253534       0.06546569      -0.09241162      -0.04173595
Si       8.17750268       2.69954481       0.00049223      -0.04462792       0.04178608       0.03338192
Si       9.52996991       4.04253534       1.36760199       0.06546569      -0.04173595      -0.09241162
Si       5.41439231       0.01182449       5.41439231       0.02637926      -0.16858852       0.02637926
Si       6.81292413       1.34308629       6.81292413       0.02912803       0.07641499       0.02912803
Si       5.42349640       2.70648160       8.15785944       0.06080968       0.17069014      -0.04069851
Si       6.79767612       4.06189174       9.51306142      -0.05132436       0.02289207      -0.05997818
Si       8.23101565       0.03438694       8.23101565       0.00010104      -0.16246492       0.00010104
Si       9.68303839       1.32307380       9.68303839      -0.10031956       0.17573079      -0.10031956
Si       8.15785944       2.70648160       5.42349640      -0.04069851       0.17069014       0.06080968
Si       9.51306142       4.06189174       6.79767612      -0.05997818       0.02289207      -0.05132436
Si       5.41439231       5.41439231       0.01182449       0.02637926       0.02637926      -0.16858852
Si       6.81292413       6.81292413       1.34308629       0.02912803       0.02912803       0.07641499
Si       5.42349640       8.15785944       2.70648160       0.06080968      -0.04069851       0.17069014
Si       6.79767612       9.51306142       4.06189174      -0.05132436      -0.05997818       0.02289207
Si       8.15785944       5.42349640       2.70648160      -0.04069851       0.06080968       0.17069014
Si       9.51306142       6.79767612       4.06189174      -0.05997818      -0.05132436       0.02289207
Si       8.23101565       8.23101565       0.03438694       0.00010104       0.00010104      -0.16246492
Si       9.68303839       9.68303839       1.32307380      -0.10031956      -0.10031956       0.17573079
Si       5.42910792       5.42910792       5.42910792       0.02139492       0.02139492       0.02139492
Si       6.78999627       6.78999627       6.78999627      -0.01066751      -0.01066751      -0.01066751
Si       5.43466453       8.15358362       8.15358362       0.06667308       0.02118949       0.02118949
Si       6.81308145       9.51564227       9.51564227       0.04272428       0.00939481       0.00939481
Si       8.15358362       5.43466453       8.15358362       0.02118949       0.06667308       0.02118949
Si       9.51564227       6.81308145       9.51564227       0.00939481       0.04272428       0.00939481
Si       8.15358362       8.15358362       5.43466453       0.02118949       0.02118949       0.06667308
Si       9.51564227       9.51564227       6.81308145       0.00939481       0.00939481       0.04272428
