31
Lattice="6.418 0.0 0.0 0.0 11.116302082977054 0.0 0.0 0.0 10.422" Properties=species:S:1:pos:R:3:REF_forces:R:3 REF_energy=-14178.572023541037 config_type=Default campaign_id=vacancy_migration_single_shot iteration=0 path_id=mg_vacancy image_index=0 selection_reason=reference calculator_name=quantum_espresso dft_settings_hash=3668ff133058213af53211583241c13d44cacb0b46fcc85a6cf119aec49f7175 structure_hash=96658c3b5259114ccbb34457a18958e0fef34782e6339436d34395d8421ed1db pbc="T T T"
Mg       1.59281963       2.76886755       0.00000000       0.04514703      -0.03048866       0.00000000
Mg       1.59531051       0.91940301       2.59158301       0.04290837      -0.02467051      -0.02422339
Mg       0.00000000       3.69955816       2.60113025       0.00000000       0.01617661       0.00009153
Mg       0.00000000       0.00046486       5.21100000       0.00000000       0.01000416       0.00000000
Mg       1.61234785       2.77125858       5.21100000       0.02693179       0.04667864       0.00000000
Mg       1.59531051       0.91940301       7.83041699       0.04290837      -0.02467051       0.02422339
Mg       0.00000000       3.69955816       7.82086975       0.00000000       0.01617661      -0.00009153
Mg      -0.00000000       5.55807408       0.00000000       0.00000000       0.02888943       0.00000000
Mg       1.60588899       8.35466428      -0.00000000       0.00114903       0.03903372       0.00000000
Mg       1.60365787       6.48790478       2.60231062       0.00909091      -0.02486308       0.02366880
Mg      -0.00000000       9.27725493       2.59187514       0.00000000       0.02484508      -0.06410891
Mg       0.00000000       5.55931947       5.21100000       0.00000000      -0.01407936       0.00000000
Mg       1.59908038       8.33729621       5.21100000       0.06873767      -0.01929150       0.00000000
Mg       1.60365787       6.48790478       7.81968938       0.00909091      -0.02486308      -0.02366880
Mg      -0.00000000       9.27725493       7.83012486       0.00000000       0.02484508       0.06410891
Mg       3.20900000      -0.01570348       0.00000000       0.00000000      -0.01035100       0.00000000
Mg       4.82518037       2.76886755       0.00000000      -0.04514703      -0.03048866       0.00000000
Mg       4.82268949       0.91940301       2.59158301      -0.04290837      -0.02467051      -0.02422339
Mg       3.20900000       3.70037335       2.60105248       0.00000000      -0.00492521       0.01179031
Mg       3.20900000       0.01433472       5.21100000       0.00000000      -0.02941008       0.00000000
Mg       4.80565215       2.77125858       5.21100000      -0.02693179       0.04667864       0.00000000
Mg       4.82268949       0.91940301       7.83041699      -0.04290837      -0.02467051       0.02422339
Mg       3.20900000       3.70037335       7.82094752       0.00000000      -0.00492521      -0.01179031
Mg       3.20900000       5.55835949      -0.00000000       0.00000000      -0.00543094       0.00000000
Mg       4.81211101       8.35466428      -0.00000000      -0.00114903       0.03903372       0.00000000
Mg       4.81434213       6.48790478       2.60231062      -0.00909091      -0.02486308       0.02366880
Mg       3.20900000       9.26851026       2.59928716       0.00000000       0.04192904      -0.00068546
Mg       3.20900000       5.55771418       5.21100000       0.00000000      -0.00940330       0.00000000
Mg       4.81891962       8.33729621       5.21100000      -0.06873767      -0.01929150       0.00000000
Mg       4.81434213       6.48790478       7.81968938      -0.00909091      -0.02486308      -0.02366880
Mg       3.20900000       9.26851026       7.82271284       0.00000000       0.04192904       0.00068546
31
Lattice="6.418 0.0 0.0 0.0 11.116302082977054 0.0 0.0 0.0 10.422" Properties=species:S:1:pos:R:3:REF_forces:R:3 REF_energy=-14178.281956583705 config_type=Default campaign_id=vacancy_migration_single_shot iteration=0 path_id=mg_vacancy image_index=2 selection_reason=peak_plus_neighbors calculator_name=quantum_espresso dft_settings_hash=3668ff133058213af53211583241c13d44cacb0b46fcc85a6cf119aec49f7175 structure_hash=4fe07ebbc2c10cddc1acb15ec05177731e4a821b8442794c2cf7d0673d58d4bf pbc="T T T"
Mg       1.77151719       2.86787900      -0.10122032      -0.02656387      -0.00203374       0.00835866
Mg       1.08249955       0.63067399       1.79623857       0.14305849       0.06065335       0.18363076
Mg      -0.02125585       3.58794791       2.57078651       0.02100206       0.05699544      -0.04205528
Mg      -0.02795011       0.00796009       5.05298612       0.01280744       0.01031938       0.04895715
Mg       1.61402322       2.70498112       5.13922175       0.02225213       0.01943651      -0.03071414
Mg       1.60371121       0.90905374       7.88757183      -0.00673398      -0.02885369      -0.05245436
Mg       0.06011951       3.72139366       7.76317164      -0.03903834      -0.00346919       0.01467046
Mg       0.02451695       5.57409576       0.00261110      -0.02374799       0.02010963      -0.01498465
Mg       1.55706311       8.53483290       0.01527401      -0.01290462      -0.05733072       0.01063254
Mg       1.56190856       6.45614989       2.57879355       0.01501319      -0.02493662       0.01294422
Mg      -0.19251370       9.15209585       2.63366252       0.02233492       0.01008078      -0.04597518
Mg      -0.00875603       5.52104023       5.17950593      -0.02542435       0.00993166       0.01156251
Mg       1.52900201       8.30220442       5.23474642       0.05677819      -0.00279530      -0.01271899
Mg       1.60815931       6.51848113       7.84429771       0.01237780      -0.02293655      -0.03264067
Mg      -0.03754448       9.31810911       7.82060401      -0.01517774      -0.00157891       0.04481716
Mg       3.49811308      -0.01774360      -0.09537910      -0.03150424      -0.01874000       0.03302505
Mg       4.99180772       2.71447628      -0.05510722      -0.06305682      -0.02523126       0.04195269
Mg       4.48447236       0.92314770       2.63669886       0.02127536      -0.01481624      -0.05202859
Mg       3.16950947       3.71123162       2.53786744       0.00506944      -0.03273888       0.03306182
Mg       3.14178577      -0.04175300       5.25668497       0.00554587       0.01146815      -0.06614831
Mg       4.78836105       2.77213367       5.14305685      -0.02297795       0.02298746       0.02834358
Mg       4.84795861       0.95246466       7.69701117      -0.03203235      -0.01987591       0.04694269
Mg       3.26702045       3.70360901       7.76260306       0.02777563       0.01774293      -0.00472517
Mg       3.24568667       5.60219099      -0.03258969      -0.02614143      -0.02958260       0.00433951
Mg       4.79071512       8.29580768       0.02035900      -0.01980675       0.01828826      -0.04353006
Mg       4.76242773       6.41462015       2.61977819       0.01270716       0.01543870      -0.00518617
Mg       3.05738645       9.25376413       2.63471332       0.04460118       0.06215488      -0.05312182
Mg       3.17018978       5.52901115       5.20699163       0.01110922       0.02361173      -0.01292314
Mg       4.74546857       8.32242990       5.23526883      -0.05399265      -0.02742904      -0.01735135
Mg       4.84048690       6.49924241       7.80050467      -0.02395677      -0.04818659      -0.01079349
Mg       3.20636726       9.26560056       7.84220333      -0.01064874       0.00131589      -0.02588715
31
Lattice="6.418 0.0 0.0 0.0 11.116302082977054 0.0 0.0 0.0 10.422" Properties=species:S:1:pos:R:3:REF_forces:R:3 REF_energy=-14178.182039239346 config_type=Default campaign_id=vacancy_migration_single_shot iteration=0 path_id=mg_vacancy image_index=3 selection_reason=peak_plus_neighbors calculator_name=quantum_espresso dft_settings_hash=3668ff133058213af53211583241c13d44cacb0b46fcc85a6cf119aec49f7175 structure_hash=12b2e1e55682342fff0994e613a69ca64953494c8e3e3b83300f2a3e1423090e pbc="T T T"
Mg       1.81242867       2.90359330      -0.06653637      -0.02535442       0.00564948       0.02557065
Mg       0.80225000       0.46317925       1.30275000      -0.00000026       0.00000694      -0.00000694
Mg       0.02571378       3.51423657       2.58274134       0.01065157       0.07137742      -0.03337832
Mg      -0.00726569       0.02314583       5.04921329       0.00543326       0.01986357       0.06264493
Mg       1.63943358       2.71222958       5.18463027       0.01475299       0.01159670      -0.03451449
Mg       1.61176569       0.90321267       7.97828671      -0.00543351      -0.01985329      -0.06263439
Mg       0.07636470       3.73360367       7.77565732      -0.05092610      -0.00453980       0.01341242
Mg       0.03526445       5.57843511       0.01838853      -0.02059942       0.03152532      -0.01107040
Mg       1.57878622       8.52842402       0.02275866      -0.01064925      -0.07137665       0.03336701
Mg       1.56923555       6.46422548       2.58711147       0.02059839      -0.03153664       0.01106217
Mg      -0.20792867       9.13906729       2.67203637       0.02535519      -0.00564948      -0.02557476
Mg      -0.00496593       5.51862931       5.17794715      -0.01985457       0.01551609       0.01855231
Mg       1.52813530       8.30905692       5.25184268       0.05092301       0.00453723      -0.01340393
Mg       1.60946593       6.52403128       7.84955285       0.01985432      -0.01552638      -0.01854614
Mg      -0.03493358       9.33043101       7.84286973      -0.01475350      -0.01158925       0.03452400
Mg       3.59154693      -0.02008469      -0.06905275      -0.03291475       0.00047463       0.05027407
Mg       4.99901681       2.74740469      -0.05174808      -0.04748005      -0.04807320       0.06467456
Mg       4.43095307       0.94644320       2.67455275       0.03291475      -0.00046151      -0.05029001
Mg       3.20658256       3.74781591       2.56107919       0.01486329      -0.01393435       0.04319839
Mg       3.15653168      -0.04039276       5.31440280       0.01656150       0.01380940      -0.04469374
Mg       4.80495223       2.77850803       5.15689657      -0.00421712       0.01022399       0.03240438
Mg       4.86596832       0.96675127       7.71309720      -0.01656202      -0.01379911       0.04470634
Mg       3.27762780       3.71159749       7.77510401       0.05030672       0.02618489       0.00346250
Mg       3.25245419       5.62314024      -0.02609061      -0.01700913      -0.01708241       0.00412739
Mg       4.81591744       8.29484468       0.04442081      -0.01486380       0.01393075      -0.04321176
Mg       4.77004581       6.41952035       2.63159061       0.01701170       0.01706853      -0.00413768
Mg       3.02348319       9.29525590       2.65724808       0.04747799       0.04807320      -0.06468278
Mg       3.17270674       5.53735132       5.21869696       0.02257583       0.04174546       0.00031367
Mg       4.74487220       8.33106310       5.25239599      -0.05030440      -0.02618540      -0.00345479
Mg       4.84979326       6.50530927       7.80880304      -0.02257763      -0.04175677      -0.00030236
Mg       3.21754777       9.26415256       7.87060343       0.00421944      -0.01021911      -0.03239230
31
Lattice="6.418 0.0 0.0 0.0 11.116302082977054 0.0 0.0 0.0 10.422" Properties=species:S:1:pos:R:3:REF_forces:R:3 REF_energy=-14178.281957808218 config_type=Default campaign_id=vacancy_migration_single_shot iteration=0 path_id=mg_vacancy image_index=4 selection_reason=peak_plus_neighbors calculator_name=quantum_espresso dft_settings_hash=3668ff133058213af53211583241c13d44cacb0b46fcc85a6cf119aec49f7175 structure_hash=1afe4fbeab981c031ffe1e9702a7d2480ad4680f1d3ef250a6bb9ffed4178c41 pbc="T T T"
Mg       1.79701370       2.89056474      -0.02816252      -0.02232386      -0.00976659       0.04595436
Mg       0.52200045       0.29568452       0.80926143      -0.14306158      -0.06072997      -0.18364130
Mg       0.04743689       3.50782769       2.59022599       0.01292262       0.05765005      -0.01060503
Mg       0.00078879       0.01730477       5.13992817       0.00675455       0.02874776       0.05245153
Mg       1.64204448       2.72455148       5.20689599       0.01518853       0.00188179      -0.04479787
Mg       1.63245011       0.91839842       7.97451388      -0.01281155      -0.01026744      -0.04898800
Mg       0.07549799       3.74045617       7.79275358      -0.05677279       0.00316117       0.01268762
Mg       0.04259144       5.58651070       0.02670645      -0.01502398       0.02504846      -0.01299204
Mg       1.62575585       8.45471268       0.03471349      -0.02101414      -0.05731040       0.04204011
Mg       1.57998305       6.46856483       2.60288890       0.02376059      -0.02015951       0.01501961
Mg      -0.16701719       9.17478159       2.70672032       0.02654664       0.00171827      -0.00832523
Mg      -0.00365931       5.52417946       5.18320229      -0.01238398       0.02305431       0.03268412
Mg       1.54438049       8.32126693       5.26432836       0.03903886       0.00315037      -0.01465040
Mg       1.61325603       6.52162036       7.84799407       0.02541973      -0.01003347      -0.01159490
Mg      -0.00952322       9.33767947       7.88827825      -0.02225393      -0.01976150       0.03070540
Mg       3.53802764       0.00321081      -0.03119886      -0.02127228       0.01470722       0.05202113
Mg       4.96511355       2.78889646      -0.02921332      -0.04459013      -0.06183477       0.05309148
Mg       4.52438692       0.94410210       2.70087910       0.03149139       0.01876880      -0.03300268
Mg       3.23178488       3.74685291       2.58514100       0.01978978      -0.01794759       0.04356683
Mg       3.17454139      -0.02610615       5.33048883       0.03201641       0.01975739      -0.04692623
Mg       4.81613274       2.77706003       5.18529667       0.01064128      -0.00097213       0.02593240
Mg       4.88071423       0.96811151       7.77081503      -0.00554176      -0.01139539       0.06613237
Mg       3.27703143       3.72023069       7.79223117       0.05398674       0.02778797       0.01730661
Mg       3.26007227       5.62804044      -0.01427819      -0.01269585      -0.01532352       0.00513372
Mg       4.85299053       8.33142897       0.06763256      -0.00505247       0.03241827      -0.03308058
Mg       4.77681333       6.44046959       2.63808969       0.02612935       0.02952861      -0.00429837
Mg       3.03069228       9.32818431       2.66060722       0.06304808       0.02491759      -0.04191978
Mg       3.18201310       5.54341818       5.22699533       0.02396782       0.04829149       0.01082974
Mg       4.75547955       8.33905158       5.26489694      -0.02777357      -0.01806020       0.00475088
Mg       4.85231022       6.51364944       7.82050837      -0.01110871      -0.02369786       0.01289922
Mg       3.23413895       9.27052692       7.88444315       0.02297846      -0.02332942      -0.02838524
