9
Lattice="20.0 0.0 0.0 0.0 20.0 0.0 0.0 0.0 20.0" Properties=species:S:1:pos:R:3 pbc="F F F"
C        9.97803468      11.15807302       9.92441046
O        9.88396724       9.98102498      10.69919058
C       10.01648651       8.81350585       9.92249070
H        9.32522774      11.90653693      10.36444091
H       11.00133255      11.53961917       9.91056964
H        9.66104404      10.98532036       8.89364556
H       10.03196580       7.96703466      10.60203099
H        9.16874643       8.70512898       9.23964199
H       10.93983617       8.81381509       9.33602778
