31
Lattice="7.23 0.0 0.0 0.0 7.23 0.0 0.0 0.0 7.23" Properties=species:S:1:pos:R:3:REF_forces:R:3 REF_energy=-89877.32040473282 config_type=Default campaign_id=vacancy_migration_single_shot iteration=0 path_id=cu_vacancy image_index=0 selection_reason=reference calculator_name=quantum_espresso dft_settings_hash=7c0d77db432c17b9c5324ca0506b9da76aa434fac29ae5cf67eecfed6f7f27e6 structure_hash=13224b5b85847ed5891b825d46f728f2366940a35f9b1d3f84ef7776864eb35c pbc="T T T"
Cu      -0.00000000       1.79314475       1.79314475       0.00000000      -0.04222806      -0.04222806
Cu       1.79314475      -0.00000000       1.79314475      -0.04222806      -0.00000000      -0.04222806
Cu       1.79314475       1.79314475      -0.00000000      -0.04222806      -0.04222806      -0.00000000
Cu      -0.00000000      -0.00000000       3.61500000       0.00000000       0.00000000       0.00000000
Cu      -0.00000000       1.79314475       5.43685525       0.00000000      -0.04222806       0.04222806
Cu       1.79314475      -0.00000000       5.43685525      -0.04222806       0.00000000       0.04222806
Cu       1.79796490       1.79796490       3.61500000       0.02457923       0.02457923       0.00000000
Cu      -0.00000000       3.61500000      -0.00000000       0.00000000       0.00000000       0.00000000
Cu      -0.00000000       5.43685525       1.79314475       0.00000000       0.04222806      -0.04222806
Cu       1.79796490       3.61500000       1.79796490       0.02457923      -0.00000000       0.02457923
Cu       1.79314475       5.43685525      -0.00000000      -0.04222806       0.04222806      -0.00000000
Cu      -0.00000000       3.61500000       3.61500000       0.00000000       0.00000000       0.00000000
Cu      -0.00000000       5.43685525       5.43685525      -0.00000000       0.04222806       0.04222806
Cu       1.79796490       3.61500000       5.43203510       0.02457923      -0.00000000      -0.02457923
Cu       1.79796490       5.43203510       3.61500000       0.02457923      -0.02457923      -0.00000000
Cu       3.61500000      -0.00000000      -0.00000000       0.00000000       0.00000000       0.00000000
Cu       3.61500000       1.79796490       1.79796490      -0.00000000       0.02457923       0.02457923
Cu       5.43685525      -0.00000000       1.79314475       0.04222806       0.00000000      -0.04222806
Cu       5.43685525       1.79314475      -0.00000000       0.04222806      -0.04222806      -0.00000000
Cu       3.61500000      -0.00000000       3.61500000       0.00000000       0.00000000       0.00000000
Cu       3.61500000       1.79796490       5.43203510       0.00000000       0.02457923      -0.02457923
Cu       5.43685525      -0.00000000       5.43685525       0.04222806      -0.00000000       0.04222806
Cu       5.43203510       1.79796490       3.61500000      -0.02457923       0.02457923      -0.00000000
Cu       3.61500000       3.61500000      -0.00000000       0.00000000       0.00000000       0.00000000
Cu       3.61500000       5.43203510       1.79796490       0.00000000      -0.02457923       0.02457923
Cu       5.43203510       3.61500000       1.79796490      -0.02457923       0.00000000       0.02457923
Cu       5.43685525       5.43685525      -0.00000000       0.04222806       0.04222806      -0.00000000
Cu       3.61500000       3.61500000       3.61500000       0.00000000       0.00000000       0.00000000
Cu       3.61500000       5.43203510       5.43203510      -0.00000000      -0.02457923      -0.02457923
Cu       5.43203510       3.61500000       5.43203510      -0.02457923      -0.00000000      -0.02457923
Cu       5.43203510       5.43203510       3.61500000      -0.02457923      -0.02457923      -0.00000000
31
Lattice="7.23 0.0 0.0 0.0 7.23 0.0 0.0 0.0 7.23" Properties=species:S:1:pos:R:3:REF_forces:R:3 REF_energy=-89876.72031603009 config_type=Default campaign_id=vacancy_migration_single_shot iteration=0 path_id=cu_vacancy image_index=2 selection_reason=peak_plus_neighbors calculator_name=quantum_espresso dft_settings_hash=7c0d77db432c17b9c5324ca0506b9da76aa434fac29ae5cf67eecfed6f7f27e6 structure_hash=871bd1476bacc6ff25a37daf72ffcac830ac49d7d1f44d953abed0eced9702f7 pbc="T T T"
Cu      -0.00048159       1.24864028       1.24864028       0.00024477       0.62724658       0.62724658
Cu       1.91928404      -0.05241956       1.82715489      -0.07988340       0.01571073      -0.11696360
Cu       1.91928404       1.82715489      -0.05241956      -0.07988340      -0.11696360       0.01571073
Cu      -0.00057484       0.01419984       3.56787742       0.00118734      -0.01566856       0.05747007
Cu      -0.00062270       1.77789185       5.47972205       0.00254668      -0.07798850      -0.05228775
Cu       1.77088503       0.00075620       5.42891719       0.01270176      -0.02494510      -0.00430557
Cu       1.75608469       1.78877081       3.58108201       0.00833115       0.00242146      -0.02032740
Cu      -0.00057484       3.56787742       0.01419984       0.00118734       0.05747007      -0.01566856
Cu      -0.00062270       5.47972205       1.77789185       0.00254668      -0.05228775      -0.07798850
Cu       1.75608469       3.58108201       1.78877081       0.00833115      -0.02032740       0.00242146
Cu       1.77088503       5.42891719       0.00075620       0.01270176      -0.00430557      -0.02494510
Cu      -0.00057953       3.58834232       3.58834232       0.00158766      -0.01677465      -0.01677465
Cu      -0.00060427       5.43500645       5.43500645       0.00216153       0.01293162       0.01293162
Cu       1.78569974       3.61928128       5.40646603       0.02708889      -0.03385834      -0.00534121
Cu       1.78569974       5.40646603       3.61928128       0.02708889      -0.00534121      -0.03385834
Cu       3.61419261      -0.02954302      -0.02954302      -0.00046254      -0.00100016      -0.00100016
Cu       3.61453120       1.82065001       1.82065001      -0.00200957      -0.05529980      -0.05529980
Cu       5.30953497      -0.05244411       1.82700050       0.07920746       0.01575649      -0.11673991
Cu       5.30953497       1.82700050      -0.05244411       0.07920746      -0.11673991       0.01575649
Cu       3.61436667      -0.00908014       3.65366364      -0.00072711      -0.03454534      -0.00076773
Cu       3.61434814       1.81024927       5.36717260      -0.00094719      -0.00143596      -0.03398150
Cu       5.45784553       0.00077434       5.42893888      -0.01250096      -0.02556114      -0.00492315
Cu       5.47280621       1.78868421       3.58103589      -0.00844376       0.00299919      -0.02027623
Cu       3.61436667       3.65366364      -0.00908014      -0.00072711      -0.00076773      -0.03454534
Cu       3.61434814       5.36717260       1.81024927      -0.00094719      -0.03398150      -0.00143596
Cu       5.47280621       3.58103589       1.78868421      -0.00844376      -0.02027623       0.00299919
Cu       5.45784553       5.42893888       0.00077434      -0.01250096      -0.00492315      -0.02556114
Cu       3.61451341       3.60097173       3.60097173      -0.00192319       0.00358463       0.00358463
Cu       3.61444583       5.42553754       5.42553754      -0.00224200      -0.03593065      -0.03593065
Cu       5.44311752       3.61920132       5.40651860      -0.02723930      -0.03325850      -0.00594002
Cu       5.44311752       5.40651860       3.61920132      -0.02723930      -0.00594002      -0.03325850
31
Lattice="7.23 0.0 0.0 0.0 7.23 0.0 0.0 0.0 7.23" Properties=species:S:1:pos:R:3:REF_forces:R:3 REF_energy=-89876.45755515223 config_type=Default campaign_id=vacancy_migration_single_shot iteration=0 path_id=cu_vacancy image_index=3 selection_reason=peak_plus_neighbors calculator_name=quantum_espresso dft_settings_hash=7c0d77db432c17b9c5324ca0506b9da76aa434fac29ae5cf67eecfed6f7f27e6 structure_hash=8aee54cacf0e5b58d266928d736d166a67b15a55c037940f4a3217006c7069a3 pbc="T T T"
Cu      -0.00059535       0.90370987       0.90370987      -0.00076773      -0.00040469      -0.00040469
Cu       1.94304851      -0.04454658       1.85212282      -0.02989216       0.05540316      -0.05546358
Cu       1.94304851       1.85212282      -0.04454658      -0.02989216      -0.05546358       0.05540316
Cu      -0.00061314       0.02928420       3.54960735      -0.00067029       0.04224940       0.06335764
Cu      -0.00063032       1.77821966       5.48789739       0.00017252      -0.04309195      -0.06280614
Cu       1.76008876       0.00961700       5.44207569       0.02255603      -0.02432495      -0.00087058
Cu       1.76011672       1.79791717       3.59547683       0.02230869       0.02380122       0.00160077
Cu      -0.00061314       3.54960735       0.02928420      -0.00067029       0.06335764       0.04224940
Cu      -0.00063032       5.48789739       1.77821966       0.00017252      -0.06280614      -0.04309195
Cu       1.76011672       3.59547683       1.79791717       0.02230869       0.00160077       0.02380122
Cu       1.76008876       5.44207569       0.00961700       0.02255603      -0.00087058      -0.02432495
Cu      -0.00062211       3.59685936       3.59685936      -0.00016712      -0.01416755      -0.01416755
Cu      -0.00061194       5.44064648       5.44064648       0.00007019       0.01468768       0.01468768
Cu       1.78332147       3.62683180       5.41069418       0.02871459      -0.00772642       0.00827741
Cu       1.78332147       5.41069418       3.62683180       0.02871459       0.00827741      -0.00772642
Cu       3.61429249      -0.02605194      -0.02605194       0.00062786       0.03236325       0.03236325
Cu       3.61440786       1.83355874       1.83355874       0.00025994      -0.03308984      -0.03308984
Cu       5.28570595      -0.04457445       1.85202032       0.02973661       0.05518102      -0.05532757
Cu       5.28570595       1.85202032      -0.04457445       0.02973661      -0.05532757       0.05518102
Cu       3.61440475      -0.00820579       3.67154904       0.00055844      -0.02114809       0.03653332
Cu       3.61435032       1.81570959       5.36595833       0.00075102       0.02049092      -0.03616514
Cu       5.46867059       0.00959642       5.44205716      -0.02274295      -0.02450287      -0.00121253
Cu       5.46869149       1.79788519       3.59541228      -0.02259254       0.02405473       0.00172007
Cu       3.61440475       3.67154904      -0.00820579       0.00055844       0.03653332      -0.02114809
Cu       3.61435032       5.36595833       1.81570959       0.00075102      -0.03616514       0.02049092
Cu       5.46869149       3.59541228       1.79788519      -0.02259254       0.00172007       0.02405473
Cu       5.46867059       5.44205716       0.00959642      -0.02274295      -0.00121253      -0.02450287
Cu       3.61445602       3.60627488       3.60627488      -0.00012573       0.02574780       0.02574780
Cu       3.61436864       5.43123546       5.43123546      -0.00004731      -0.02565575      -0.02565575
Cu       5.44543807       3.62679228       5.41069548      -0.02882489      -0.00744643       0.00793545
Cu       5.44543807       5.41069548       3.62679228      -0.02882489       0.00793545      -0.00744643
31
Lattice="7.23 0.0 0.0 0.0 7.23 0.0 0.0 0.0 7.23" Properties=species:S:1:pos:R:3:REF_forces:R:3 REF_energy=-89876.72073753442 config_type=Default campaign_id=vacancy_migration_single_shot iteration=0 path_id=cu_vacancy image_index=4 selection_reason=peak_plus_neighbors calculator_name=quantum_espresso dft_settings_hash=7c0d77db432c17b9c5324ca0506b9da76aa434fac29ae5cf67eecfed6f7f27e6 structure_hash=69a30aa7c166f5d27b9a0dfd3e32c537295daafb635ba64981c71c784972092d pbc="T T T"
Cu      -0.00044117       0.55851651       0.55851651      -0.00136346      -0.62798578      -0.62798578
Cu       1.91941532      -0.01955660       1.86003939      -0.08072853       0.11590636      -0.01367493
Cu       1.91941532       1.86003939      -0.01955660      -0.08072853      -0.01367493       0.11590636
Cu      -0.00050988       0.02959769       3.55783014      -0.00105878       0.07655511       0.05457552
Cu      -0.00047504       1.79331820       5.46962445      -0.00052708       0.01683584      -0.06017513
Cu       1.75612707       0.01877361       5.45640898       0.00791411      -0.00425749       0.01857648
Cu       1.77112177       1.80680696       3.60862287       0.01193532       0.02802091       0.00671958
Cu      -0.00050988       3.55783014       0.02959769      -0.00105878       0.05457552       0.07655511
Cu      -0.00047504       5.46962445       1.79331820      -0.00052708      -0.06017513       0.01683584
Cu       1.77112177       3.60862287       1.80680696       0.01193532       0.00671958       0.02802091
Cu       1.75612707       5.45640898       0.01877361       0.00791411       0.01857648      -0.00425749
Cu      -0.00049944       3.60248035       3.60248035      -0.00068931      -0.01106886      -0.01106886
Cu      -0.00055835       5.44920805       5.44920805      -0.00022626       0.01432002       0.01432002
Cu       1.78586559       3.63105197       5.41821475       0.02690839       0.00760867       0.03102036
Cu       1.78586559       5.41821475       3.63105197       0.02690839       0.03102036       0.00760867
Cu       3.61430826      -0.01312118      -0.01312118       0.00143339       0.05301358       0.05301358
Cu       3.61458277       1.83708111       1.83708111       0.00058158       0.00371782       0.00371782
Cu       5.30956442      -0.01962185       1.85989449       0.08067685       0.11592281      -0.01350009
Cu       5.30956442       1.85989449      -0.01962185       0.08067685      -0.01350009       0.11592281
Cu       3.61454278      -0.00275954       3.67032831       0.00085078      -0.00026739       0.03519532
Cu       3.61445376       1.81653698       5.38382839       0.00117499       0.03784715      -0.00194375
Cu       5.47277074       0.01877571       5.45648026      -0.00777887      -0.00435236       0.01786968
Cu       5.45799796       1.80673459       3.60863260      -0.01255290       0.02848731       0.00645913
Cu       3.61454278       3.67032831      -0.00275954       0.00085078       0.03519532      -0.00026739
Cu       3.61445376       5.38382839       1.81653698       0.00117499      -0.00194375       0.03784715
Cu       5.45799796       3.60863260       1.80673459      -0.01255290       0.00645913       0.02848731
Cu       5.47277074       5.45648026       0.01877571      -0.00777887       0.01786968      -0.00435236
Cu       3.61462752       3.61200829       3.61200829       0.00043837       0.03650247       0.03650247
Cu       3.61447563       5.43653359       5.43653359       0.00065692      -0.00623261      -0.00623261
Cu       5.44316312       3.63102097       5.41826950      -0.02723004       0.00780227       0.03050228
Cu       5.44316312       5.41826950       3.63102097      -0.02723004       0.03050228       0.00780227
