11
Lattice="20.0 0.0 0.0 0.0 20.0 0.0 0.0 0.0 20.0" Properties=species:S:1:pos:R:3 pbc="F F F"
C       10.00143334       9.99737319      10.41297951
C        9.99892144      11.28571154       9.57127165
C       10.00128500       8.72391095       9.57248873
H        9.13345078       9.98452349      11.07097808
H       10.87148618       9.98643246      11.06817346
H       10.87433486      11.90125623       9.76866232
H       10.00172277       7.83623636      10.20405812
H        9.99892174      11.05747760       8.50537321
H        9.12175876      11.89844570       9.76919757
H        9.12141583       8.67627688       8.93053899
H       10.88067528       8.67642862       8.92985194
