31
Lattice="7.78 0.0 0.0 0.0 7.78 0.0 0.0 0.0 7.78" Properties=species:S:1:pos:R:3:REF_forces:R:3 REF_energy=-106794.43039681466 config_type=Default campaign_id=vacancy_migration_single_shot iteration=0 path_id=pd_vacancy image_index=0 selection_reason=reference calculator_name=quantum_espresso dft_settings_hash=9116a3b74767f8c12a6eb53cd6bef74c1507c7744006b79e3ac863d4a25477af structure_hash=19baf134e3a4a9e7ba4145f8ea3bb97516ce1a8c331ab28795efc52743ba06ec pbc="T T T"
Pd       0.00000000       1.91183548       1.91183548      -0.00000000      -0.03830455      -0.03830455
Pd       1.91183548      -0.00000000       1.91183548      -0.03830455       0.00000000      -0.03830455
Pd       1.91183548       1.91183548       0.00000000      -0.03830455      -0.03830455      -0.00000000
Pd       0.00000000       0.00000000       3.89000000       0.00000000       0.00000000       0.00000000
Pd      -0.00000000       1.91183548       5.86816452       0.00000000      -0.03830455       0.03830455
Pd       1.91183548      -0.00000000       5.86816452      -0.03830455       0.00000000       0.03830455
Pd       1.93948461       1.93948461       3.89000000      -0.05249216      -0.05249216       0.00000000
Pd       0.00000000       3.89000000       0.00000000       0.00000000       0.00000000       0.00000000
Pd      -0.00000000       5.86816452       1.91183548      -0.00000000       0.03830455      -0.03830455
Pd       1.93948461       3.89000000       1.93948461      -0.05249216       0.00000000      -0.05249216
Pd       1.91183548       5.86816452      -0.00000000      -0.03830455       0.03830455       0.00000000
Pd      -0.00000000       3.89000000       3.89000000       0.00000000       0.00000000       0.00000000
Pd      -0.00000000       5.86816452       5.86816452       0.00000000       0.03830455       0.03830455
Pd       1.93948461       3.89000000       5.84051539      -0.05249216      -0.00000000       0.05249216
Pd       1.93948461       5.84051539       3.89000000      -0.05249216       0.05249216       0.00000000
Pd       3.89000000       0.00000000       0.00000000       0.00000000       0.00000000       0.00000000
Pd       3.89000000       1.93948461       1.93948461       0.00000000      -0.05249216      -0.05249216
Pd       5.86816452       0.00000000       1.91183548       0.03830455       0.00000000      -0.03830455
Pd       5.86816452       1.91183548       0.00000000       0.03830455      -0.03830455       0.00000000
Pd       3.89000000      -0.00000000       3.89000000       0.00000000       0.00000000       0.00000000
Pd       3.89000000       1.93948461       5.84051539      -0.00000000      -0.05249216       0.05249216
Pd       5.86816452      -0.00000000       5.86816452       0.03830455       0.00000000       0.03830455
Pd       5.84051539       1.93948461       3.89000000       0.05249216      -0.05249216       0.00000000
Pd       3.89000000       3.89000000      -0.00000000       0.00000000       0.00000000       0.00000000
Pd       3.89000000       5.84051539       1.93948461      -0.00000000       0.05249216      -0.05249216
Pd       5.84051539       3.89000000       1.93948461       0.05249216      -0.00000000      -0.05249216
Pd       5.86816452       5.86816452      -0.00000000       0.03830455       0.03830455       0.00000000
Pd       3.89000000       3.89000000       3.89000000       0.00000000       0.00000000       0.00000000
Pd       3.89000000       5.84051539       5.84051539       0.00000000       0.05249216       0.05249216
Pd       5.84051539       3.89000000       5.84051539       0.05249216      -0.00000000       0.05249216
Pd       5.84051539       5.84051539       3.89000000       0.05249216       0.05249216       0.00000000
31
Lattice="7.78 0.0 0.0 0.0 7.78 0.0 0.0 0.0 7.78" Properties=species:S:1:pos:R:3:REF_forces:R:3 REF_energy=-106793.72741601907 config_type=Default campaign_id=vacancy_migration_single_shot iteration=0 path_id=pd_vacancy image_index=2 selection_reason=peak_plus_neighbors calculator_name=quantum_espresso dft_settings_hash=9116a3b74767f8c12a6eb53cd6bef74c1507c7744006b79e3ac863d4a25477af structure_hash=85a05b8bf515c5b299d3b68bd0bedd1d18a684e2bd9c125995cf7ea7388f3c74 pbc="T T T"
Pd      -0.00062663       1.34627632       1.34627632       0.00041858       0.55604374       0.55604374
Pd       2.06449711      -0.05652754       1.95615753      -0.17216312       0.00487404      -0.04354446
Pd       2.06449711       1.95615753      -0.05652754      -0.17216312      -0.04354446       0.00487404
Pd      -0.00062546       0.01806039       3.83983960       0.00011467       0.00303416       0.09532082
Pd      -0.00064388       1.89971723       5.90756212       0.00030956      -0.16023783      -0.05214017
Pd       1.88427403       0.00152776       5.86331793       0.08195391      -0.02998780      -0.00855509
Pd       1.87425784       1.92439630       3.83858789       0.00666070       0.02031326       0.01162833
Pd      -0.00062546       3.83983960       0.01806039       0.00011467       0.09532082       0.00303416
Pd      -0.00064388       5.90756212       1.89971723       0.00030956      -0.05214017      -0.16023783
Pd       1.87425784       3.83858789       1.92439630       0.00666070       0.01162833       0.02031326
Pd       1.88427403       5.86331793       0.00152776       0.08195391      -0.00855509      -0.02998780
Pd      -0.00063904       3.85280838       3.85280838       0.00019540      -0.11005401      -0.11005401
Pd      -0.00065460       5.86023700       5.86023700      -0.00002443       0.06417011       0.06417011
Pd       1.92002965       3.89265148       5.81747446      -0.06416574      -0.02143554       0.01526207
Pd       1.92002965       5.81747446       3.89265148      -0.06416574       0.01526207      -0.02143554
Pd       3.88925372      -0.03701469      -0.03701469       0.00046537      -0.08024516      -0.08024516
Pd       3.88942167       1.96284635       1.96284635      -0.00068623      -0.05411144      -0.05411144
Pd       5.71424257      -0.05650294       1.95606221       0.17180137       0.00445032      -0.04330303
Pd       5.71424257       1.95606221      -0.05650294       0.17180137      -0.04330303       0.00445032
Pd       3.88939162      -0.01302076       3.94397076      -0.00020363      -0.04670332      -0.11638484
Pd       3.88931306       1.95012764       5.75354371       0.00038078       0.02213514       0.06778276
Pd       5.89439228       0.00155020       5.86332893      -0.08179605      -0.03024003      -0.00853632
Pd       5.90452817       1.92437679       3.83857988      -0.00686639       0.02025901       0.01171086
Pd       3.88939162       3.94397076      -0.01302076      -0.00020363      -0.11638484      -0.04670332
Pd       3.88931306       5.75354371       1.95012764       0.00038078       0.06778276       0.02213514
Pd       5.90452817       3.83857988       1.92437679      -0.00686639       0.01171086       0.02025901
Pd       5.89439228       5.86332893       0.00155020      -0.08179605      -0.00853632      -0.03024003
Pd       3.88942883       3.87654190       3.87654190      -0.00025608       0.00814423       0.00814423
Pd       3.88937041       5.83576283       5.83576283       0.00001697      -0.09373651      -0.09373651
Pd       5.85873014       3.89257974       5.81751996       0.06390914      -0.02090307       0.01498927
Pd       5.85873014       5.81751996       3.89257974       0.06390914       0.01498927      -0.02090307
31
Lattice="7.78 0.0 0.0 0.0 7.78 0.0 0.0 0.0 7.78" Properties=species:S:1:pos:R:3:REF_forces:R:3 REF_energy=-106793.46613557656 config_type=Default campaign_id=vacancy_migration_single_shot iteration=0 path_id=pd_vacancy image_index=3 selection_reason=peak_plus_neighbors calculator_name=quantum_espresso dft_settings_hash=9116a3b74767f8c12a6eb53cd6bef74c1507c7744006b79e3ac863d4a25477af structure_hash=b338ba47b3760c06ef01a50138a6e94994df3223065de871ee50d4706b9d9b45 pbc="T T T"
Pd      -0.00062286       0.97249474       0.97249474      -0.00042577      -0.00009950      -0.00009950
Pd       2.09622577      -0.04477205       1.98984972      -0.12730020      -0.01831628       0.01784140
Pd       2.09622577       1.98984972      -0.04477205      -0.12730020       0.01784140      -0.01831628
Pd      -0.00063267       0.03970111       3.81588969      -0.00031753       0.08471476       0.03014490
Pd      -0.00067206       1.90530490       5.90911788       0.00008176      -0.08480244      -0.03001917
Pd       1.87236540       0.01199875       5.87836213       0.05035865      -0.04155905      -0.00644010
Pd       1.87241065       1.93303353       3.84666374       0.05007043       0.04174135       0.00661365
Pd      -0.00063267       3.81588969       0.03970111      -0.00031753       0.03014490       0.08471476
Pd      -0.00067206       5.90911788       1.90530490       0.00008176      -0.03001917      -0.08480244
Pd       1.87241065       3.84666374       1.93303353       0.05007043       0.00661365       0.04174135
Pd       1.87236540       5.87836213       0.01199875       0.05035865      -0.00644010      -0.04155905
Pd      -0.00062793       3.85921975       3.85921975      -0.00037178      -0.07265372      -0.07265372
Pd      -0.00063169       5.86578660       5.86578660      -0.00052682       0.07250100       0.07250100
Pd       1.91603335       3.90135700       5.82367157      -0.06832321      -0.00995505       0.00976968
Pd       1.91603335       5.82367157       3.90135700      -0.06832321       0.00976968      -0.00995505
Pd       3.88934302      -0.03398187      -0.03398187      -0.00057567      -0.03510019      -0.03510019
Pd       3.88935585       1.97899023       1.97899023      -0.00009513       0.03521923       0.03521923
Pd       5.68244007      -0.04480993       1.98975249       0.12788590      -0.01789051       0.01841424
Pd       5.68244007       1.98975249      -0.04480993       0.12788590       0.01841424      -0.01789051
Pd       3.88937540      -0.01192948       3.97108715      -0.00024040      -0.05703092      -0.08948827
Pd       3.88933750       1.95693449       5.75392182      -0.00014038       0.05728392       0.08933169
Pd       5.90626110       0.01198158       5.87835456      -0.04970302      -0.04177348      -0.00670287
Pd       5.90630323       1.93300180       3.84663927      -0.04998327       0.04183133       0.00652597
Pd       3.88937540       3.97108715      -0.01192948      -0.00024040      -0.08948827      -0.05703092
Pd       3.88933750       5.75392182       1.95693449      -0.00014038       0.08933169       0.05728392
Pd       5.90630323       3.84663927       1.93300180      -0.04998327       0.00652597       0.04183133
Pd       5.90626110       5.87835456       0.01198158      -0.04970302      -0.00670287      -0.04177348
Pd       3.88936598       3.88344201       3.88344201      -0.00011364       0.05658201       0.05658201
Pd       3.88934066       5.84156662       5.84156662      -0.00009076      -0.05678384      -0.05678384
Pd       5.86264094       3.90131843       5.82366788       0.06871119      -0.00961310       0.00971311
Pd       5.86264094       5.82366788       3.90131843       0.06871119       0.00971311      -0.00961310
31
Lattice="7.78 0.0 0.0 0.0 7.78 0.0 0.0 0.0 7.78" Properties=species:S:1:pos:R:3:REF_forces:R:3 REF_energy=-106793.72710281605 config_type=Default campaign_id=vacancy_migration_single_shot iteration=0 path_id=pd_vacancy image_index=4 selection_reason=peak_plus_neighbors calculator_name=quantum_espresso dft_settings_hash=9116a3b74767f8c12a6eb53cd6bef74c1507c7744006b79e3ac863d4a25477af structure_hash=28745d3df9f254d5b4badd612080ae41f60dd8a77395dae05f63bd743ef2d170 pbc="T T T"
Pd      -0.00059099       0.59898130       0.59898130      -0.00034607      -0.55561411      -0.55561411
Pd       2.06450835      -0.01114204       2.00153609      -0.17184688       0.04376969      -0.00447089
Pd       2.06450835       2.00153609      -0.01114204      -0.17184688      -0.00447089       0.04376969
Pd      -0.00063173       0.04531207       3.81741478      -0.00013730       0.15957552       0.05230575
Pd      -0.00065126       1.92689525       5.88516686      -0.00003728      -0.00285650      -0.09499301
Pd       1.87419563       0.02060185       5.88640437       0.00655040      -0.02052717      -0.01156431
Pd       1.88430352       1.94347679       3.86169885       0.08196703       0.03028014       0.00815760
Pd      -0.00063173       3.81741478       0.04531207      -0.00013730       0.05230575       0.15957552
Pd      -0.00065126       5.88516686       1.92689525      -0.00003728      -0.09499301      -0.00285650
Pd       1.88430352       3.86169885       1.94347679       0.08196703       0.00815760       0.03028014
Pd       1.87419563       5.88640437       0.02060185       0.00655040      -0.01156431      -0.02052717
Pd      -0.00063381       3.86473832       3.86473832      -0.00014861      -0.06391660      -0.06391660
Pd      -0.00067414       5.87219015       5.87219015      -0.00000977       0.10983418       0.10983418
Pd       1.92001504       3.90750906       5.83239190      -0.06447324      -0.01484761       0.02092981
Pd       1.92001504       5.83239190       3.90750906      -0.06447324       0.02092981      -0.01484761
Pd       3.88921502      -0.01787364      -0.01787364       0.00116600       0.05431301       0.05431301
Pd       3.88941653       1.98201322       1.98201322      -0.00041215       0.08028861       0.08028861
Pd       5.71421844      -0.01115381       2.00146023       0.17176435       0.04355294      -0.00464547
Pd       5.71421844       2.00146023      -0.01115381       0.17176435      -0.00464547       0.04355294
Pd       3.88939409      -0.00509252       3.97151653      -0.00015272      -0.02202536      -0.06838415
Pd       3.88930513       1.95808667       5.78104560       0.00060961       0.04655728       0.11637816
Pd       5.90446420       0.02060412       5.88639831      -0.00670312      -0.02057654      -0.01123906
Pd       5.89447322       1.94345260       3.86166010      -0.08207193       0.03019324       0.00849004
Pd       3.88939409       3.97151653      -0.00509252      -0.00015272      -0.06838415      -0.02202536
Pd       3.88930513       5.78104560       1.95808667       0.00060961       0.11637816       0.04655728
Pd       5.89447322       3.86166010       1.94345260      -0.08207193       0.00849004       0.03019324
Pd       5.90446420       5.88639831       0.02060412      -0.00670312      -0.01123906      -0.02057654
Pd       3.88945632       3.88926696       3.88926696      -0.00046023       0.09333876       0.09333876
Pd       3.88931108       5.84846040       5.84846040       0.00040135      -0.00839825      -0.00839825
Pd       5.85870431       3.90748748       5.83240688       0.06443570      -0.01483347       0.02092698
Pd       5.85870431       5.83240688       3.90748748       0.06443570       0.02092698      -0.01483347
