31
Lattice="8.16 0.0 0.0 0.0 8.16 0.0 0.0 0.0 8.16" Properties=species:S:1:pos:R:3:REF_forces:R:3 REF_energy=-115849.24467107885 config_type=Default campaign_id=vacancy_migration_single_shot iteration=0 path_id=au_vacancy image_index=0 selection_reason=reference calculator_name=quantum_espresso dft_settings_hash=6fc58ea92dcd493d220b876f9c6daeec2f72a2a0132e29b9a22a7693b7ad0cfd structure_hash=cc6e019d2a00f759f2ce499ea8329a8db1a518a319fa1e8dc09834c826ba0a64 pbc="T T T"
Au      -0.00000000       1.99576435       1.99576435       0.00000000       0.03093217       0.03093217
Au       1.99576435      -0.00000000       1.99576435       0.03093217      -0.00000000       0.03093217
Au       1.99576435       1.99576435      -0.00000000       0.03093217       0.03093217       0.00000000
Au      -0.00000000      -0.00000000       4.08000000       0.00000000       0.00000000       0.00000000
Au      -0.00000000       1.99576435       6.16423565       0.00000000       0.03093217      -0.03093217
Au       1.99576435      -0.00000000       6.16423565       0.03093217       0.00000000      -0.03093217
Au       2.03038586       2.03038586       4.08000000       0.01943651       0.01943651      -0.00000000
Au      -0.00000000       4.08000000      -0.00000000       0.00000000       0.00000000       0.00000000
Au      -0.00000000       6.16423565       1.99576435      -0.00000000      -0.03093217       0.03093217
Au       2.03038586       4.08000000       2.03038586       0.01943651      -0.00000000       0.01943651
Au       1.99576435       6.16423565      -0.00000000       0.03093217      -0.03093217       0.00000000
Au      -0.00000000       4.08000000       4.08000000       0.00000000       0.00000000       0.00000000
Au      -0.00000000       6.16423565       6.16423565      -0.00000000      -0.03093217      -0.03093217
Au       2.03038586       4.08000000       6.12961414       0.01943651       0.00000000      -0.01943651
Au       2.03038586       6.12961414       4.08000000       0.01943651      -0.01943651       0.00000000
Au       4.08000000      -0.00000000      -0.00000000       0.00000000       0.00000000       0.00000000
Au       4.08000000       2.03038586       2.03038586      -0.00000000       0.01943651       0.01943651
Au       6.16423565      -0.00000000       1.99576435      -0.03093217      -0.00000000       0.03093217
Au       6.16423565       1.99576435      -0.00000000      -0.03093217       0.03093217       0.00000000
Au       4.08000000      -0.00000000       4.08000000       0.00000000       0.00000000       0.00000000
Au       4.08000000       2.03038586       6.12961414       0.00000000       0.01943651      -0.01943651
Au       6.16423565      -0.00000000       6.16423565      -0.03093217      -0.00000000      -0.03093217
Au       6.12961414       2.03038586       4.08000000      -0.01943651       0.01943651      -0.00000000
Au       4.08000000       4.08000000      -0.00000000       0.00000000       0.00000000       0.00000000
Au       4.08000000       6.12961414       2.03038586       0.00000000      -0.01943651       0.01943651
Au       6.12961414       4.08000000       2.03038586      -0.01943651       0.00000000       0.01943651
Au       6.16423565       6.16423565      -0.00000000      -0.03093217      -0.03093217       0.00000000
Au       4.08000000       4.08000000       4.08000000       0.00000000       0.00000000       0.00000000
Au       4.08000000       6.12961414       6.12961414      -0.00000000      -0.01943651      -0.01943651
Au       6.12961414       4.08000000       6.12961414      -0.01943651      -0.00000000      -0.01943651
Au       6.12961414       6.12961414       4.08000000      -0.01943651      -0.01943651       0.00000000
31
Lattice="8.16 0.0 0.0 0.0 8.16 0.0 0.0 0.0 8.16" Properties=species:S:1:pos:R:3:REF_forces:R:3 REF_energy=-115848.67393107811 config_type=Default campaign_id=vacancy_migration_single_shot iteration=0 path_id=au_vacancy image_index=2 selection_reason=peak_plus_neighbors calculator_name=quantum_espresso dft_settings_hash=6fc58ea92dcd493d220b876f9c6daeec2f72a2a0132e29b9a22a7693b7ad0cfd structure_hash=108f4edd90fed22c4b0cd2fdb8824a9d36357af3ddf8e73a3a688f68a34a6a5a pbc="T T T"
Au       0.00000524       1.39906754       1.39906754       0.00018281       0.49931363       0.49931363
Au       2.13539241      -0.06159858       2.05204269       0.02492427      -0.04075430      -0.07498700
Au       2.13539241       2.05204269      -0.06159858       0.02492427      -0.07498700      -0.04075430
Au      -0.00002072       0.03243678       4.02083947       0.00018589      -0.04403194       0.03141040
Au      -0.00001870       1.96151500       6.19218292       0.00018769       0.02346517      -0.03998374
Au       1.99074009      -0.00308383       6.14007171       0.05784185      -0.04162102      -0.05598937
Au       1.98098657       2.01628583       4.03196911       0.10836891       0.04682724       0.04796624
Au      -0.00002072       4.02083947       0.03243678       0.00018589       0.03141040      -0.04403194
Au      -0.00001870       6.19218292       1.96151500       0.00018769      -0.03998374       0.02346517
Au       1.98098657       4.03196911       2.01628583       0.10836891       0.04796624       0.04682724
Au       1.99074009       6.14007171      -0.00308383       0.05784185      -0.05598937      -0.04162102
Au      -0.00001016       4.00497493       4.00497493       0.00007199       0.04478913       0.04478913
Au       0.00000556       6.18146317       6.18146317      -0.00009744      -0.02016568      -0.02016568
Au       1.98472437       4.08555917       6.08847826       0.07379426      -0.02964122      -0.03256868
Au       1.98472437       6.08847826       4.08555917       0.07379426      -0.03256868      -0.02964122
Au       4.08006132      -0.03650714      -0.03650714      -0.00041395       0.01686335       0.01686335
Au       4.08005493       2.05047451       2.05047451      -0.00043272      -0.07035335      -0.07035335
Au       6.02462296      -0.06156983       2.05206327      -0.02494459      -0.04102864      -0.07491346
Au       6.02462296       2.05206327      -0.06156983      -0.02494459      -0.07491346      -0.04102864
Au       4.07999186      -0.02265255       4.11405340      -0.00000437       0.02669474       0.11529007
Au       4.07999530       2.05009133       6.07506814       0.00003677      -0.02530454      -0.18451830
Au       6.16924082      -0.00305587       6.14006611      -0.05772229      -0.04191541      -0.05595620
Au       6.17898570       2.01629308       4.03199765      -0.10828252       0.04698922       0.04799118
Au       4.07999186       4.11405340      -0.02265255      -0.00000437       0.11529007       0.02669474
Au       4.07999530       6.07506814       2.05009133       0.00003677      -0.18451830      -0.02530454
Au       6.17898570       4.03199765       2.01629308      -0.10828252       0.04799118       0.04698922
Au       6.16924082       6.14006611      -0.00305587      -0.05772229      -0.05595620      -0.04191541
Au       4.07998087       4.06119048       4.06119048       0.00013884       0.02760979       0.02760979
Au       4.07999178       6.11276397       6.11276397       0.00011210      -0.03921241      -0.03921241
Au       6.17531462       4.08557278       6.08849296      -0.07416681      -0.02958800      -0.03267641
Au       6.17531462       6.08849296       4.08557278      -0.07416681      -0.03267641      -0.02958800
31
Lattice="8.16 0.0 0.0 0.0 8.16 0.0 0.0 0.0 8.16" Properties=species:S:1:pos:R:3:REF_forces:R:3 REF_energy=-115848.47395788346 config_type=Default campaign_id=vacancy_migration_single_shot iteration=0 path_id=au_vacancy image_index=3 selection_reason=peak_plus_neighbors calculator_name=quantum_espresso dft_settings_hash=6fc58ea92dcd493d220b876f9c6daeec2f72a2a0132e29b9a22a7693b7ad0cfd structure_hash=f71b630c6d5428ad3c57dd7a6ac41673f575fbc7ecbd88c6124cefb8a2e5a600 pbc="T T T"
Au      -0.00003105       1.02000000       1.02000000      -0.00027819       0.00000000       0.00000000
Au       2.16265058      -0.04798738       2.08798738       0.05529003       0.01717266      -0.01717266
Au       2.16265058       2.08798738      -0.04798738       0.05529003      -0.01717266       0.01717266
Au      -0.00000282       0.06957316       3.99887163       0.00005554      -0.00897546       0.01189958
Au      -0.00000282       1.97042684       6.20112837       0.00005554       0.00897546      -0.01189958
Au       1.98377368       0.00869728       6.15087942       0.09881109      -0.05980283      -0.05541756
Au       1.98377368       2.03130272       4.04912058       0.09881109       0.05980283       0.05541756
Au      -0.00000282       3.99887163       0.06957316       0.00005554       0.01189958      -0.00897546
Au      -0.00000282       6.20112837       1.97042684       0.00005554      -0.01189958       0.00897546
Au       1.98377368       4.04912058       2.03130272       0.09881109       0.05541756       0.05980283
Au       1.98377368       6.15087942       0.00869728       0.09881109      -0.05541756      -0.05980283
Au       0.00002552       4.01120805       4.01120805      -0.00003471       0.01069527       0.01069527
Au       0.00002552       6.18879195       6.18879195      -0.00003471      -0.01069527      -0.01069527
Au       1.97695102       4.10063005       6.09936995       0.08445328       0.00611665      -0.00611665
Au       1.97695102       6.09936995       4.10063005       0.08445328      -0.00611665       0.00611665
Au       4.08000136      -0.03021753      -0.03021753       0.00066566       0.05352008       0.05352008
Au       4.08000136       2.07021753       2.07021753       0.00066566      -0.05352008      -0.05352008
Au       5.99740091      -0.04810713       2.08810713      -0.05570321       0.01791982      -0.01791982
Au       5.99740091       2.08810713      -0.04810713      -0.05570321      -0.01791982       0.01791982
Au       4.07999729      -0.01808567       4.12696981      -0.00019180       0.01604780       0.19366912
Au       4.07999729       2.05808567       6.07303019      -0.00019180      -0.01604780      -0.19366912
Au       6.17621847       0.00866617       6.15078477      -0.09873190      -0.05967376      -0.05464648
Au       6.17621847       2.03133383       4.04921523      -0.09873190       0.05967376       0.05464648
Au       4.07999729       4.12696981      -0.01808567      -0.00019180       0.19366912       0.01604780
Au       4.07999729       6.07303019       2.05808567      -0.00019180      -0.19366912      -0.01604780
Au       6.17621847       4.04921523       2.03133383      -0.09873190       0.05464648       0.05967376
Au       6.17621847       6.15078477       0.00866617      -0.09873190      -0.05464648      -0.05967376
Au       4.08003584       4.07562257       4.07562257      -0.00062298       0.03752885       0.03752885
Au       4.08003584       6.12437743       6.12437743      -0.00062298      -0.03752885      -0.03752885
Au       6.18297706       4.10072241       6.09927759      -0.08379508       0.00541809      -0.00541809
Au       6.18297706       6.09927759       4.10072241      -0.08379508      -0.00541809       0.00541809
31
Lattice="8.16 0.0 0.0 0.0 8.16 0.0 0.0 0.0 8.16" Properties=species:S:1:pos:R:3:REF_forces:R:3 REF_energy=-115848.67393107811 config_type=Default campaign_id=vacancy_migration_single_shot iteration=0 path_id=au_vacancy image_index=4 selection_reason=peak_plus_neighbors calculator_name=quantum_espresso dft_settings_hash=6fc58ea92dcd493d220b876f9c6daeec2f72a2a0132e29b9a22a7693b7ad0cfd structure_hash=ef882fc5ea662149d6fe5176979f9eb1bf6a44708c010a13e76ef4a151c77708 pbc="T T T"
Au       0.00000525       0.64093247       0.64093247       0.00018718      -0.49931620      -0.49931620
Au       2.13539242      -0.01204268       2.10159860       0.02491707       0.07497851       0.04074839
Au       2.13539242       2.10159860      -0.01204268       0.02491707       0.04074839       0.07497851
Au      -0.00001870       0.07848499       4.00781709       0.00019026      -0.02347443       0.03998940
Au      -0.00002074       2.00756322       6.17916053       0.00018923       0.04404300      -0.03140757
Au       1.98098657       0.02371418       6.16803088       0.10836506      -0.04683701      -0.04796084
Au       1.99074010       2.04308384       4.05992828       0.05783671       0.04161870       0.05599631
Au      -0.00001870       4.00781709       0.07848499       0.00019026       0.03998940      -0.02347443
Au      -0.00002074       6.17916053       2.00756322       0.00018923      -0.03140757       0.04404300
Au       1.99074010       4.05992828       2.04308384       0.05783671       0.05599631       0.04161870
Au       1.98098657       6.16803088       0.02371418       0.10836506      -0.04796084      -0.04683701
Au       0.00000556       4.01853683       4.01853683      -0.00010336       0.02016979       0.02016979
Au      -0.00001019       6.19502507       6.19502507       0.00008433      -0.04479222      -0.04479222
Au       1.98472437       4.11152174       6.11444083       0.07378886       0.03257716       0.02964045
Au       1.98472437       6.11444083       4.11152174       0.07378886       0.02964045       0.03257716
Au       4.08005495      -0.01047451      -0.01047451      -0.00043812       0.07034718       0.07034718
Au       4.08006128       2.07650714       2.07650714      -0.00041575      -0.01686721      -0.01686721
Au       6.02462295      -0.01206329       2.10156983      -0.02493379       0.07490549       0.04101887
Au       6.02462295       2.10156983      -0.01206329      -0.02493379       0.04101887       0.07490549
Au       4.07999530      -0.01009133       4.12493185       0.00003522       0.02529786       0.18452370
Au       4.07999188       2.06265255       6.08594660      -0.00000694      -0.02668497      -0.11529084
Au       6.17898568       0.02370690       6.16800235      -0.10828432      -0.04699745      -0.04798913
Au       6.16924083       2.04305587       4.05993389      -0.05771638       0.04191978       0.05596212
Au       4.07999530       4.12493185      -0.01009133       0.00003522       0.18452370       0.02529786
Au       4.07999188       6.08594660       2.06265255      -0.00000694      -0.11529084      -0.02668497
Au       6.16924083       4.05993389       2.04305587      -0.05771638       0.05596212       0.04191978
Au       6.17898568       6.16800235       0.02370690      -0.10828432      -0.04798913      -0.04699745
Au       4.07999176       4.08723603       4.08723603       0.00011647       0.03922321       0.03922321
Au       4.07998087       6.13880952       6.13880952       0.00013421      -0.02760851      -0.02760851
Au       6.17531462       4.11150704       6.11442721      -0.07416347       0.03268026       0.02958620
Au       6.17531462       6.11442721       4.11150704      -0.07416347       0.02958620       0.03268026
