15
Lattice="7.02 0.0 0.0 0.0 7.02 0.0 0.0 0.0 7.02" Properties=species:S:1:pos:R:3:REF_forces:R:3 REF_energy=-2952.3701512138123 config_type=Default campaign_id=vacancy_migration_single_shot iteration=0 path_id=li_vacancy image_index=0 selection_reason=reference calculator_name=quantum_espresso dft_settings_hash=a5458097d168d5de4db049ec656a1bf2e121ad16e3b597abcf11dbeb8de758aa structure_hash=636f9ec68358ba8741d9aa99d5237ab64aaaeb3a84d8d7df6d39906217cad5b6 pbc="T T T"
Li       1.68757062       1.68757062       1.68757062       0.01393281       0.01393281       0.01393281
Li      -0.00000000      -0.00000000       3.51000000       0.00000000       0.00000000       0.00000000
Li       1.68757062       1.68757062       5.33242938       0.01393281       0.01393281      -0.01393281
Li      -0.00000000       3.51000000      -0.00000000       0.00000000       0.00000000       0.00000000
Li       1.68757062       5.33242938       1.68757062       0.01393281      -0.01393281       0.01393281
Li      -0.00000000       3.51000000       3.51000000       0.00000000       0.00000000       0.00000000
Li       1.68757062       5.33242938       5.33242938       0.01393281      -0.01393281      -0.01393281
Li       3.51000000      -0.00000000      -0.00000000       0.00000000       0.00000000       0.00000000
Li       5.33242938       1.68757062       1.68757062      -0.01393281       0.01393281       0.01393281
Li       3.51000000      -0.00000000       3.51000000       0.00000000       0.00000000       0.00000000
Li       5.33242938       1.68757062       5.33242938      -0.01393281       0.01393281      -0.01393281
Li       3.51000000       3.51000000       0.00000000       0.00000000       0.00000000       0.00000000
Li       5.33242938       5.33242938       1.68757062      -0.01393281      -0.01393281       0.01393281
Li       3.51000000       3.51000000       3.51000000       0.00000000       0.00000000       0.00000000
Li       5.33242938       5.33242938       5.33242938      -0.01393281      -0.01393281      -0.01393281
15
Lattice="7.02 0.0 0.0 0.0 7.02 0.0 0.0 0.0 7.02" Properties=species:S:1:pos:R:3:REF_forces:R:3 REF_energy=-2952.283609217022 config_type=Default campaign_id=vacancy_migration_single_shot iteration=0 path_id=li_vacancy image_index=2 selection_reason=peak_plus_neighbors calculator_name=quantum_espresso dft_settings_hash=a5458097d168d5de4db049ec656a1bf2e121ad16e3b597abcf11dbeb8de758aa structure_hash=2d8c7abfd96be5a1421e860c26374ff15e4c6c89145a468155b45102b4b4c98e pbc="T T T"
Li       1.21569652       1.21569652       1.21569652       0.07121159       0.07121159       0.07121159
Li      -0.02353363      -0.02353363       3.55285339      -0.01588428      -0.01588428      -0.00345556
Li       1.70654549       1.70654549       5.24062287       0.00432871       0.00432871       0.01785734
Li      -0.02353363       3.55285339      -0.02353363      -0.01588428      -0.00345556      -0.01588428
Li       1.70654549       5.24062287       1.70654549       0.00432871       0.01785734       0.00432871
Li       0.05397810       3.39926507       3.39926507      -0.00689338       0.01436347       0.01436347
Li       1.68390709       5.36413122       5.36413122       0.00132566      -0.01898734      -0.01898734
Li       3.55285339      -0.02353363      -0.02353363      -0.00345556      -0.01588428      -0.01588428
Li       5.24062287       1.70654549       1.70654549       0.01785734       0.00432871       0.00432871
Li       3.39926507       0.05397810       3.39926507       0.01436347      -0.00689338       0.01436347
Li       5.36413122       1.68390709       5.36413122      -0.01898734       0.00132566      -0.01898734
Li       3.39926507       3.39926507       0.05397810       0.01436347       0.01436347      -0.00689338
Li       5.36413122       5.36413122       1.68390709      -0.01898734      -0.01898734       0.00132566
Li       3.44365267       3.44365267       3.44365267       0.00098550       0.00098550       0.00098550
Li       5.26392427       5.26392427       5.26392427      -0.04867201      -0.04867201      -0.04867201
15
Lattice="7.02 0.0 0.0 0.0 7.02 0.0 0.0 0.0 7.02" Properties=species:S:1:pos:R:3:REF_forces:R:3 REF_energy=-2952.2361935166928 config_type=Default campaign_id=vacancy_migration_single_shot iteration=0 path_id=li_vacancy image_index=3 selection_reason=peak_plus_neighbors calculator_name=quantum_espresso dft_settings_hash=a5458097d168d5de4db049ec656a1bf2e121ad16e3b597abcf11dbeb8de758aa structure_hash=30eb5ce23d3dfaf98e704760d9aceb8d5dbbe974378f33091c09b2645db294d3 pbc="T T T"
Li       0.87750000       0.87750000       0.87750000       0.00000000       0.00000000       0.00000000
Li       0.00555549       0.00555549       3.56605502      -0.01343273      -0.01343273      -0.01669752
Li       1.74944451       1.74944451       5.20894498       0.01343273       0.01343273       0.01669752
Li       0.00555549       3.56605502       0.00555549      -0.01343273      -0.01669752      -0.01343273
Li       1.74944451       5.20894498       1.74944451       0.01343273       0.01669752       0.01343273
Li       0.06488484       3.39304425       3.39304425      -0.00577058       0.00483727       0.00483727
Li       1.69011516       5.38195575       5.38195575       0.00577058      -0.00483727      -0.00483727
Li       3.56605502       0.00555549       0.00555549      -0.01669752      -0.01343273      -0.01343273
Li       5.20894498       1.74944451       1.74944451       0.01669752       0.01343273       0.01343273
Li       3.39304425       0.06488484       3.39304425       0.00483727      -0.00577058       0.00483727
Li       5.38195575       1.69011516       5.38195575      -0.00483727       0.00577058      -0.00483727
Li       3.39304425       3.39304425       0.06488484       0.00483727       0.00483727      -0.00577058
Li       5.38195575       5.38195575       1.69011516      -0.00483727      -0.00483727       0.00577058
Li       3.48756719       3.48756719       3.48756719       0.03054779       0.03054779       0.03054779
Li       5.28743281       5.28743281       5.28743281      -0.03054779      -0.03054779      -0.03054779
15
Lattice="7.02 0.0 0.0 0.0 7.02 0.0 0.0 0.0 7.02" Properties=species:S:1:pos:R:3:REF_forces:R:3 REF_energy=-2952.28360663194 config_type=Default campaign_id=vacancy_migration_single_shot iteration=0 path_id=li_vacancy image_index=4 selection_reason=peak_plus_neighbors calculator_name=quantum_espresso dft_settings_hash=a5458097d168d5de4db049ec656a1bf2e121ad16e3b597abcf11dbeb8de758aa structure_hash=451e9f89b40a708268f5263707756bb3a6205432e54b7a52bc602755c968d76f pbc="T T T"
Li       0.53930348       0.53930348       0.53930348      -0.07109409      -0.07109409      -0.07109409
Li       0.04845451       0.04845451       3.53437713      -0.00462541      -0.00462541      -0.01758943
Li       1.77853363       1.77853363       5.22214661       0.01600795       0.01600795       0.00324602
Li       0.04845451       3.53437713       0.04845451      -0.00462541      -0.01758943      -0.00462541
Li       1.77853363       5.22214661       1.77853363       0.01600795       0.00324602       0.01600795
Li       0.07109291       3.41086878       3.41086878      -0.00088317       0.01870735       0.01870735
Li       1.70102190       5.37573493       5.37573493       0.00634008      -0.01419892      -0.01419892
Li       3.53437713       0.04845451       0.04845451      -0.01758943      -0.00462541      -0.00462541
Li       5.22214661       1.77853363       1.77853363       0.00324602       0.01600795       0.01600795
Li       3.41086878       0.07109291       3.41086878       0.01870735      -0.00088317       0.01870735
Li       5.37573493       1.70102190       5.37573493      -0.01419892       0.00634008      -0.01419892
Li       3.41086878       3.41086878       0.07109291       0.01870735       0.01870735      -0.00088317
Li       5.37573493       5.37573493       1.70102190      -0.01419892      -0.01419892       0.00634008
Li       3.51107573       3.51107573       3.51107573       0.04885430       0.04885430       0.04885430
Li       5.33134733       5.33134733       5.33134733      -0.00065563      -0.00065563      -0.00065563
