11
Lattice="20.0 0.0 0.0 0.0 20.0 0.0 0.0 0.0 20.0" Properties=species:S:1:pos:R:3 pbc="F F F"
C       10.03029028       9.99932107      10.41186596
C        9.99834980      11.27799508       9.57097049
C        9.97317883       8.72728349       9.57296241
H        9.19969616      10.00797643      11.11791760
H       10.93782932       9.97977014      11.01447140
H       10.52587175      12.09361701      10.06054285
H        9.96192133       7.83909464      10.20342418
H       10.46913987      11.12076888       8.60091046
H        8.97892391      11.61199498       9.38695604
H        9.08542818       8.70153349       8.94116379
H       10.84363106       8.65961686       8.91984870
