11
Lattice="20.0 0.0 0.0 0.0 20.0 0.0 0.0 0.0 20.0" Properties=species:S:1:pos:R:3 pbc="F F F"
C        9.97236754       9.99958932      10.41218500
C       10.00088686      11.27952442       9.57265938
C       10.02812240       8.72820493       9.57210025
H        9.06674197       9.97818995      11.01758892
H       10.80487181      10.00827675      11.11590370
H       11.01934795      11.61972255       9.39440570
H       10.04735179       7.83994926      10.20232635
H        9.53620445      11.12061326       8.59989583
H        9.46618008      12.09174905      10.05996428
H        9.15315803       8.65751866       8.92530387
H       10.91132044       8.70584386       8.93378399
